LAMMPS (31 Aug 2021)
# PREREQUISITES:
#
#     You must use moltemplate.sh to create 3 files:
#        system.data  system.in.init  system.in.settings
#     (Follow the instructions in README_setup.sh,
#      or run the file as a script using ./README_setup.sh)

# ------------------------------- Initialization Section --------------------

include         "system.in.init"
    units real
    atom_style full
    bond_style harmonic
    angle_style harmonic
    dihedral_style opls
    improper_style harmonic
    pair_style lj/cut/coul/long 11.0 11.0
      # (Note to self: The pair_style used by OPLSAA/M (2015) is:
      #                lj/charmm/coul/long 9.0 11.0
      #                ...so this will have to be updated eventually.)
    pair_modify mix geometric
    special_bonds lj/coul 0.0 0.0 0.5
    kspace_style pppm 0.0001

# ------------------------------- Atom Definition Section -------------------

read_data       "system.data"
Reading data file ...
  orthogonal box = (0.0000000 0.0000000 0.0000000) to (48.000000 48.000000 48.000000)
  1 by 1 by 1 MPI processor grid
  reading atoms ...
  2160 atoms
  scanning bonds ...
  3 = max bonds/atom
  scanning angles ...
  3 = max angles/atom
  scanning dihedrals ...
  5 = max dihedrals/atom
  reading bonds ...
  1944 bonds
  reading angles ...
  2808 angles
  reading dihedrals ...
  3456 dihedrals
Finding 1-2 1-3 1-4 neighbors ...
  special bond factors lj:    0        0        0.5     
  special bond factors coul:  0        0        0.5     
     3 = max # of 1-2 neighbors
     4 = max # of 1-3 neighbors
     8 = max # of 1-4 neighbors
     8 = max # of special neighbors
  special bonds CPU = 0.001 seconds
  read_data CPU = 0.008 seconds

# OPLSAA atom charges are stored in a separate file.
# Load that file now:

include         "system.in.charges"
    #--------------------- IMPORTANT -----------------------
    # The first 56 atom types (excluding 48,49) are not intended for use in an
    # ordinary (all-atom) simulation.  Instead, these atoms were intended for
    # use with "United Atom" molecules which lack hydrogen atoms.
    # (They belong to the OPLSUA force field, not the OPLSAA force field.)
    #--------------------------------------------------------
    set type 1 charge -0.22  # "Fluoride -CH2-F (UA)"    DON'T USE(OPLSUA)
Setting atom values ...
  0 settings made for charge
    set type 2 charge 0.22  # "Fluoride -CH2-F (UA)"     DON'T USE(OPLSUA)
Setting atom values ...
  0 settings made for charge
    set type 3 charge 0.55  # "Acetic Acid -COOH (UA)"   DON'T USE(OPLSUA)
Setting atom values ...
  0 settings made for charge
    set type 4 charge -0.5  # "Acetic Acid >C=O (UA)"    DON'T USE(OPLSUA)
Setting atom values ...
  0 settings made for charge
    set type 5 charge -0.58  # "Acetic Acid -OH (UA)"    DON'T USE(OPLSUA)
Setting atom values ...
  0 settings made for charge
    set type 6 charge 0.08  # "Acetic Acid CH3- (UA)"    DON'T USE(OPLSUA)
Setting atom values ...
  0 settings made for charge
    set type 7 charge 0.45  # "Acetic Acid -OH (UA)"     DON'T USE(OPLSUA)
Setting atom values ...
  0 settings made for charge
    set type 8 charge 0.0  # "Methane CH4 (UA)"          DON'T USE(OPLSUA)
Setting atom values ...
  0 settings made for charge
    set type 9 charge 0.0  # "Ethane CH3- (UA)"          DON'T USE(OPLSUA)
Setting atom values ...
  0 settings made for charge
    set type 10 charge 0.0  # "N-Alkane CH3- (UA)"       DON'T USE(OPLSUA)
Setting atom values ...
  0 settings made for charge
    set type 11 charge 0.0  # "Isobutane CH3- (UA)"      DON'T USE(OPLSUA)
Setting atom values ...
  0 settings made for charge
    set type 12 charge 0.0  # "Neopentane CH3- (UA)"     DON'T USE(OPLSUA)
Setting atom values ...
  0 settings made for charge
    set type 13 charge 0.0  # "Alkanes -CH2- (UA)"       DON'T USE(OPLSUA)
Setting atom values ...
  0 settings made for charge
    set type 14 charge 0.0  # "1-Alkene CH2= (UA)"       DON'T USE(OPLSUA)
Setting atom values ...
  0 settings made for charge
    set type 15 charge 0.0  # "Isobutane CH (UA)"        DON'T USE(OPLSUA)
Setting atom values ...
  0 settings made for charge
    set type 16 charge 0.0  # "2-Alkene -CH= (UA)"       DON'T USE(OPLSUA)
Setting atom values ...
  0 settings made for charge
    set type 17 charge 0.0  # "Aromatic CH (UA)"         DON'T USE(OPLSUA)
Setting atom values ...
  0 settings made for charge
    set type 18 charge 0.0  # "Neopentane C (UA)"        DON'T USE(OPLSUA)
Setting atom values ...
  0 settings made for charge
    set type 19 charge 0.0  # "Isobutene >C= (UA)"       DON'T USE(OPLSUA)
Setting atom values ...
  0 settings made for charge
    set type 20 charge -0.7  # "Alcohol OH (UA)"         DON'T USE(OPLSUA)
Setting atom values ...
  0 settings made for charge
    set type 21 charge 0.435  # "Alcohol OH (UA)"        DON'T USE(OPLSUA)
Setting atom values ...
  0 settings made for charge
    set type 22 charge 0.265  # "Methanol CH3- (UA)"     DON'T USE(OPLSUA)
Setting atom values ...
  0 settings made for charge
    set type 23 charge 0.265  # "Ethanol -CH2OH (UA)"    DON'T USE(OPLSUA)
Setting atom values ...
  0 settings made for charge
    set type 24 charge -0.47  # "Hydrogen Sulfide H2S"   DON'T USE(OPLSUA)
Setting atom values ...
  0 settings made for charge
    set type 25 charge -0.45  # "Alkyl Sulfide RSH (UA)" DON'T USE(OPLSUA)
Setting atom values ...
  0 settings made for charge
    set type 26 charge -0.47  # "Thioether RSR (UA)"     DON'T USE(OPLSUA)
Setting atom values ...
  0 settings made for charge
    set type 27 charge -0.3  # "Disulfide RSSR (UA)"     DON'T USE(OPLSUA)
Setting atom values ...
  0 settings made for charge
    set type 28 charge 0.235  # "Hydrogen Sulfide H2S"   DON'T USE(OPLSUA)
Setting atom values ...
  0 settings made for charge
    set type 29 charge 0.27  # "Alkyl Sulfide RSH (UA)"  DON'T USE(OPLSUA)
Setting atom values ...
  0 settings made for charge
    set type 30 charge 0.18  # "Methyl Sulfide CH3 (UA)" DON'T USE(OPLSUA)
Setting atom values ...
  0 settings made for charge
    set type 31 charge 0.18  # "Alkyl Sulfide CH2 (UA)"  DON'T USE(OPLSUA)
Setting atom values ...
  0 settings made for charge
    set type 32 charge 0.235  # "Thioether CH3 (UA)"     DON'T USE(OPLSUA)
Setting atom values ...
  0 settings made for charge
    set type 33 charge 0.235  # "Thioether CH2 (UA)"     DON'T USE(OPLSUA)
Setting atom values ...
  0 settings made for charge
    set type 34 charge 0.3  # "Disulfide CH3 (UA)"       DON'T USE(OPLSUA)
Setting atom values ...
  0 settings made for charge
    set type 35 charge 0.3  # "Disulfide CH2 (UA)"       DON'T USE(OPLSUA)
Setting atom values ...
  0 settings made for charge
    set type 36 charge -0.43  # "Acetonitrile -CN (UA)"  DON'T USE(OPLSUA)
Setting atom values ...
  0 settings made for charge
    set type 37 charge 0.28  # "Acetonitrile -CN (UA)"   DON'T USE(OPLSUA)
Setting atom values ...
  0 settings made for charge
    set type 38 charge 0.15  # "Acetonitrile CH3 (UA)"   DON'T USE(OPLSUA)
Setting atom values ...
  0 settings made for charge
    set type 39 charge 0.265  # "Isopropanol >CHOH (UA)" DON'T USE(OPLSUA)
Setting atom values ...
  0 settings made for charge
    set type 40 charge 0.265  # "t-Butanol COH (UA)"     DON'T USE(OPLSUA)
Setting atom values ...
  0 settings made for charge
    set type 41 charge -0.5  # "Ether ROR (UA)"          DON'T USE(OPLSUA)
Setting atom values ...
  0 settings made for charge
    set type 42 charge 0.25  # "Ether CH3-OR (UA)"       DON'T USE(OPLSUA)
Setting atom values ...
  0 settings made for charge
    set type 43 charge 0.25  # "Ether -CH2-OR (UA)"      DON'T USE(OPLSUA)
Setting atom values ...
  0 settings made for charge
    set type 44 charge 0.5  # "Methylene Chloride (UA)"  DON'T USE(OPLSUA)
Setting atom values ...
  0 settings made for charge
    set type 45 charge -0.25  # "Methylene Chloride (UA)"DON'T USE(OPLSUA)
Setting atom values ...
  0 settings made for charge
    set type 46 charge 0.42  # "Chloroform CHCl3 (UA)"   DON'T USE(OPLSUA)
Setting atom values ...
  0 settings made for charge
    set type 47 charge -0.14  # "Chloroform CHCl3 (UA)"  DON'T USE(OPLSUA)
Setting atom values ...
  0 settings made for charge
    set type 48 charge 0.248  # "Carbon Tetrachloride"
Setting atom values ...
  0 settings made for charge
    set type 49 charge -0.062  # "Carbon Tetrachloride"
Setting atom values ...
  0 settings made for charge
    set type 50 charge 0.139  # "DMSO >S=O (UA)"         DON'T USE(OPLSUA)
Setting atom values ...
  0 settings made for charge
    set type 51 charge -0.459  # "DMSO >S=O (UA)"        DON'T USE(OPLSUA)
Setting atom values ...
  0 settings made for charge
    set type 52 charge 0.16  # "DMSO CH3- (UA)"          DON'T USE(OPLSUA)
Setting atom values ...
  0 settings made for charge
    set type 53 charge -0.5  # "DMF C=O (UA)"            DON'T USE(OPLSUA)
Setting atom values ...
  0 settings made for charge
    set type 54 charge -0.57  # "DMF CON< (UA)"          DON'T USE(OPLSUA)
Setting atom values ...
  0 settings made for charge
    set type 55 charge 0.5  # "DMF C=O (UA)"             DON'T USE(OPLSUA)
Setting atom values ...
  0 settings made for charge
    set type 56 charge 0.285  # "DMF CH3- (UA)"          DON'T USE(OPLSUA)
Setting atom values ...
  0 settings made for charge
    #--------------------------------------------------------
    # ORDINARY (OPLSAA) ATOM TYPES BEGIN HERE:
    # Do not use the "UA" atom types above this line in an all-atom simulation.
    #--------------------------------------------------------
    set type 57 charge 0.0  # "Dummy Atom"
Setting atom values ...
  0 settings made for charge
    set type 58 charge 0.0  # "Helium Atom"
Setting atom values ...
  0 settings made for charge
    set type 59 charge 0.0  # "Neon Atom"
Setting atom values ...
  0 settings made for charge
    set type 60 charge 0.0  # "Argon Atom"
Setting atom values ...
  0 settings made for charge
    set type 61 charge 0.0  # "Krypton Atom"
Setting atom values ...
  0 settings made for charge
    set type 62 charge 0.0  # "Xenon Atom"
Setting atom values ...
  0 settings made for charge
    set type 63 charge -0.834  # "TIP3P Water O"
Setting atom values ...
  0 settings made for charge
    set type 64 charge 0.417  # "TIP3P Water H"
Setting atom values ...
  0 settings made for charge
    set type 65 charge 0.0  # "TIP4P Water O"
Setting atom values ...
  0 settings made for charge
    set type 66 charge 0.52  # "TIP4P Water H"
Setting atom values ...
  0 settings made for charge
    set type 67 charge -1.04  # "TIP4P Water M"
Setting atom values ...
  0 settings made for charge
    set type 68 charge -0.822  # "TIP3F Water O"
Setting atom values ...
  0 settings made for charge
    set type 69 charge 0.411  # "TIP3F Water H"
Setting atom values ...
  0 settings made for charge
    set type 70 charge 0.0  # "TIP4F Water O"
Setting atom values ...
  0 settings made for charge
    set type 71 charge 0.511  # "TIP4F Water H"
Setting atom values ...
  0 settings made for charge
    set type 72 charge -1.022  # "TIP4F Water M"
Setting atom values ...
  0 settings made for charge
    set type 73 charge 0.0  # "TIP5P Water O"
Setting atom values ...
  0 settings made for charge
    set type 74 charge 0.241  # "TIP5P Water H"
Setting atom values ...
  0 settings made for charge
    set type 75 charge -0.241  # "TIP5P Water LP"
Setting atom values ...
  0 settings made for charge
    set type 76 charge -0.82  # "SPC Water O"
Setting atom values ...
  0 settings made for charge
    set type 77 charge 0.41  # "SPC Water H"
Setting atom values ...
  0 settings made for charge
    set type 78 charge -1.02  # "Ammonia NH3"
Setting atom values ...
  0 settings made for charge
    set type 79 charge 0.34  # "Ammonia NH3"
Setting atom values ...
  0 settings made for charge
    set type 80 charge -0.18  # "Alkane CH3-"
Setting atom values ...
  0 settings made for charge
    set type 81 charge -0.12  # "Alkane -CH2-"
Setting atom values ...
  0 settings made for charge
    set type 82 charge -0.06  # "Alkane >CH-"
Setting atom values ...
  0 settings made for charge
    set type 83 charge -0.24  # "Methane CH4"
Setting atom values ...
  0 settings made for charge
    set type 84 charge 0.0  # "Alkane >C<"
Setting atom values ...
  0 settings made for charge
    set type 85 charge 0.06  # "Alkane H-C"
Setting atom values ...
  0 settings made for charge
    set type 86 charge 0.0  # "Alkene R2-C="
Setting atom values ...
  0 settings made for charge
    set type 87 charge -0.115  # "Alkene RH-C="
Setting atom values ...
  0 settings made for charge
    set type 88 charge -0.23  # "Alkene H2-C="
Setting atom values ...
  0 settings made for charge
    set type 89 charge 0.115  # "Alkene H-C="
Setting atom values ...
  0 settings made for charge
    set type 90 charge -0.115  # "Aromatic C"
Setting atom values ...
  0 settings made for charge
    set type 91 charge 0.115  # "Aromatic H-C"
Setting atom values ...
  0 settings made for charge
    set type 92 charge 0.0  # "Naphthalene Fusion C"
Setting atom values ...
  0 settings made for charge
    set type 93 charge -0.065  # "Ethyl Benzene CH3-"
Setting atom values ...
  0 settings made for charge
    set type 94 charge -0.005  # "Ethyl Benzene -CH2-"
Setting atom values ...
  0 settings made for charge
    set type 95 charge -0.115  # "Diene =CH-CH="
Setting atom values ...
  0 settings made for charge
    set type 96 charge -0.683  # "Alcohol -OH"
Setting atom values ...
  0 settings made for charge
    set type 97 charge 0.418  # "Alcohol -OH"
Setting atom values ...
  0 settings made for charge
    set type 98 charge 0.04  # "Methanol CH3-"
Setting atom values ...
  0 settings made for charge
    set type 99 charge 0.145  # "Alcohol CH3OH & RCH2OH"
Setting atom values ...
  0 settings made for charge
    set type 100 charge 0.205  # "Alcohol R2CHOH"
Setting atom values ...
  0 settings made for charge
    set type 101 charge 0.265  # "Alcohol R3COH"
Setting atom values ...
  0 settings made for charge
    set type 102 charge 0.1263  # "Trifluoroethanol -CH2-"
Setting atom values ...
  0 settings made for charge
    set type 103 charge 0.5323  # "Trifluoroethanol CF3-"
Setting atom values ...
  0 settings made for charge
    set type 104 charge -0.6351  # "Trifluoroethanol -OH"
Setting atom values ...
  0 settings made for charge
    set type 105 charge 0.4286  # "Trifluoroethanol -OH"
Setting atom values ...
  0 settings made for charge
    set type 106 charge -0.2057  # "Trifluoroethanol F"
Setting atom values ...
  0 settings made for charge
    set type 107 charge 0.0825  # "Trifluoroethanol -CH2-"
Setting atom values ...
  0 settings made for charge
    set type 108 charge 0.15  # "Phenol C-OH"
Setting atom values ...
  0 settings made for charge
    set type 109 charge -0.585  # "Phenol -OH"
Setting atom values ...
  0 settings made for charge
    set type 110 charge 0.435  # "Phenol -OH"
Setting atom values ...
  0 settings made for charge
    set type 111 charge -0.7  # "Diol -OH"
Setting atom values ...
  0 settings made for charge
    set type 112 charge 0.435  # "Diol -OH"
Setting atom values ...
  0 settings made for charge
    set type 113 charge -0.73  # "Triol -OH"
Setting atom values ...
  0 settings made for charge
    set type 114 charge 0.465  # "Triol -OH"
Setting atom values ...
  0 settings made for charge
    set type 115 charge 0.145  # "Diol & Triol -CH2OH"
Setting atom values ...
  0 settings made for charge
    set type 116 charge 0.205  # "Diol & Triol -CHROH"
Setting atom values ...
  0 settings made for charge
    set type 117 charge 0.265  # "Diol & Triol -CR2OH"
Setting atom values ...
  0 settings made for charge
    set type 118 charge 0.06  # "Diol & Triol H-COH"
Setting atom values ...
  0 settings made for charge
    set type 119 charge -0.17  # "Diphenyl Ether"
Setting atom values ...
  0 settings made for charge
    set type 120 charge 0.0  # "Diene =CR-CR="
Setting atom values ...
  0 settings made for charge
    set type 121 charge -0.285  # "Anisole -OCH3"
Setting atom values ...
  0 settings made for charge
    set type 122 charge -0.4  # "Dialkyl Ether -O-"
Setting atom values ...
  0 settings made for charge
    set type 123 charge 0.11  # "Methyl Ether CH3OR"
Setting atom values ...
  0 settings made for charge
    set type 124 charge 0.14  # "Ethyl Ether -CH2OR"
Setting atom values ...
  0 settings made for charge
    set type 125 charge 0.17  # "Isopropyl Ether >CHOR"
Setting atom values ...
  0 settings made for charge
    set type 126 charge 0.2  # "t-Butyl Ether COR"
Setting atom values ...
  0 settings made for charge
    set type 127 charge 0.03  # "Alkyl Ether H-COR"
Setting atom values ...
  0 settings made for charge
    set type 128 charge -0.4  # "Acetal RO-CR2OX"
Setting atom values ...
  0 settings made for charge
    set type 129 charge -0.7  # "Hemiacetal -OH"
Setting atom values ...
  0 settings made for charge
    set type 130 charge 0.435  # "Hemiacetal -OH"
Setting atom values ...
  0 settings made for charge
    set type 131 charge 0.2  # "Acetal RO-CH2-OR"
Setting atom values ...
  0 settings made for charge
    set type 132 charge 0.1  # "Acetal RO-CH2-OR"
Setting atom values ...
  0 settings made for charge
    set type 133 charge 0.265  # "Hemiacetal RO-CH2-OH"
Setting atom values ...
  0 settings made for charge
    set type 134 charge 0.1  # "Hemiacetal RO-CH2-OH"
Setting atom values ...
  0 settings made for charge
    set type 135 charge 0.3  # "Acetal RO-CHR-OR"
Setting atom values ...
  0 settings made for charge
    set type 136 charge 0.1  # "Acetal RO-CHR-OR"
Setting atom values ...
  0 settings made for charge
    set type 137 charge 0.365  # "Hemiacetal RO-CHR-OH"
Setting atom values ...
  0 settings made for charge
    set type 138 charge 0.1  # "Hemiacetal RO-CHR-OH"
Setting atom values ...
  0 settings made for charge
    set type 139 charge 0.4  # "Acetal RO-CR2-OR"
Setting atom values ...
  0 settings made for charge
    set type 140 charge 0.465  # "Hemiacetal RO-CR2-OH"
Setting atom values ...
  0 settings made for charge
    set type 141 charge 0.085  # "Anisole C-OCH3"
Setting atom values ...
  0 settings made for charge
    set type 142 charge -0.335  # "Thiol -SH"
Setting atom values ...
  0 settings made for charge
    set type 143 charge -0.47  # "Hydrogen Sulfide H2S"
Setting atom values ...
  0 settings made for charge
    set type 144 charge -0.435  # "Sulfide -S-"
Setting atom values ...
  0 settings made for charge
    set type 145 charge -0.2175  # "Disulfide -S-S-"
Setting atom values ...
  0 settings made for charge
    set type 146 charge 0.155  # "Thiol -SH"
Setting atom values ...
  0 settings made for charge
    set type 147 charge 0.235  # "Hydrogen Sulfide H2S"
Setting atom values ...
  0 settings made for charge
    set type 148 charge 0.06  # "Thiol -CH2-SH"
Setting atom values ...
  0 settings made for charge
    set type 149 charge 0.12  # "Thiol >CH-SH"
Setting atom values ...
  0 settings made for charge
    set type 150 charge 0.18  # "Thiol C-SH"
Setting atom values ...
  0 settings made for charge
    set type 151 charge 0.0375  # "Methyl Sulfide CH3-SR"
Setting atom values ...
  0 settings made for charge
    set type 152 charge 0.0975  # "Sulfide RCH2-SR"
Setting atom values ...
  0 settings made for charge
    set type 153 charge 0.1575  # "Sulfide R2CH-SR"
Setting atom values ...
  0 settings made for charge
    set type 154 charge 0.2175  # "Sulfide R3C-SR"
Setting atom values ...
  0 settings made for charge
    set type 155 charge 0.0375  # "Disulfide CH3-S-SR"
Setting atom values ...
  0 settings made for charge
    set type 156 charge 0.0975  # "Disulfide RCH2-S-SR"
Setting atom values ...
  0 settings made for charge
    set type 157 charge 0.1575  # "Disulfide R2CH-S-SR"
Setting atom values ...
  0 settings made for charge
    set type 158 charge 0.2175  # "Disulfide R3C-S-SR"
Setting atom values ...
  0 settings made for charge
    set type 159 charge 0.0  # "Methanethiol CH3-SH"
Setting atom values ...
  0 settings made for charge
    set type 160 charge 0.2  # "Benzyl Alcohol -CH2OH"
Setting atom values ...
  0 settings made for charge
    set type 161 charge 0.26  # "Benzyl Alcohol -CHROH"
Setting atom values ...
  0 settings made for charge
    set type 162 charge 0.32  # "Benzyl Alcohol -CR2OH"
Setting atom values ...
  0 settings made for charge
    set type 163 charge -0.055  # "Benzyl Alcohol/Nitrile"
Setting atom values ...
  0 settings made for charge
    set type 164 charge -0.32  # "Thioanisole -SCH3"
Setting atom values ...
  0 settings made for charge
    set type 165 charge 0.08  # "RCH2-NH2 & GLY CA"
Setting atom values ...
  0 settings made for charge
    set type 166 charge 0.14  # "RCHR-NH2 & ALA CA"
Setting atom values ...
  0 settings made for charge
    set type 167 charge 0.2  # "R3C-NH2 & AIB CA"
Setting atom values ...
  0 settings made for charge
    set type 168 charge -0.12  # "Chloroalkene Cl-CH="
Setting atom values ...
  0 settings made for charge
    set type 169 charge 0.005  # "Chloroalkene Cl-CH="
Setting atom values ...
  0 settings made for charge
    set type 170 charge 0.1025  # "Thioanisole C-SCH3"
Setting atom values ...
  0 settings made for charge
    set type 171 charge 0.14  # "Amide -NH-CHR2"
Setting atom values ...
  0 settings made for charge
    set type 172 charge 0.2  # "Amide -NH-CR3"
Setting atom values ...
  0 settings made for charge
    set type 173 charge 0.7  # "Benzophenone C=O"
Setting atom values ...
  0 settings made for charge
    set type 174 charge 0.565  # "Benzaldehyde C=O"
Setting atom values ...
  0 settings made for charge
    set type 175 charge 0.585  # "Acetophenone C=O"
Setting atom values ...
  0 settings made for charge
    set type 176 charge 0.615  # "Benzamide C=O"
Setting atom values ...
  0 settings made for charge
    set type 177 charge 0.5  # "Amide C=O"
Setting atom values ...
  0 settings made for charge
    set type 178 charge -0.5  # "Amide C=O"
Setting atom values ...
  0 settings made for charge
    set type 179 charge -0.76  # "Amide -CO-NH2"
Setting atom values ...
  0 settings made for charge
    set type 180 charge -0.5  # "Amide -CO-NHR"
Setting atom values ...
  0 settings made for charge
    set type 181 charge -0.14  # "Amide -CO-NR2"
Setting atom values ...
  0 settings made for charge
    set type 182 charge 0.38  # "Amide -CO-NH2"
Setting atom values ...
  0 settings made for charge
    set type 183 charge 0.3  # "Amide -CO-NHR"
Setting atom values ...
  0 settings made for charge
    set type 184 charge 0.02  # "Amide -NH-CH3"
Setting atom values ...
  0 settings made for charge
    set type 185 charge -0.11  # "Amide -NR-CH3"
Setting atom values ...
  0 settings made for charge
    set type 186 charge 0.08  # "Amide -NH-CH2R"
Setting atom values ...
  0 settings made for charge
    set type 187 charge -0.05  # "Amide -NR-CH2R & PRO CD"
Setting atom values ...
  0 settings made for charge
    set type 188 charge 0.01  # "Amide -NR-CHR2 & PRO CA"
Setting atom values ...
  0 settings made for charge
    set type 189 charge 0.142  # "Urea C=O"
Setting atom values ...
  0 settings made for charge
    set type 190 charge -0.39  # "Urea C=O"
Setting atom values ...
  0 settings made for charge
    set type 191 charge -0.542  # "Urea -NH2"
Setting atom values ...
  0 settings made for charge
    set type 192 charge 0.333  # "Urea -NH2"
Setting atom values ...
  0 settings made for charge
    set type 193 charge -0.49  # "Imide -NH-"
Setting atom values ...
  0 settings made for charge
    set type 194 charge 0.42  # "Imide C=O"
Setting atom values ...
  0 settings made for charge
    set type 195 charge -0.42  # "Imide C=O"
Setting atom values ...
  0 settings made for charge
    set type 196 charge 0.37  # "Imide -NH-"
Setting atom values ...
  0 settings made for charge
    set type 197 charge 0.06  # "Formimide H-C=O"
Setting atom values ...
  0 settings made for charge
    set type 198 charge -0.12  # "Imide CH3-CONHCO-"
Setting atom values ...
  0 settings made for charge
    set type 199 charge -0.06  # "Imide -CH2-CONHCO-"
Setting atom values ...
  0 settings made for charge
    set type 200 charge 0.0  # "Imide >CH-CONHCO-"
Setting atom values ...
  0 settings made for charge
    set type 201 charge 0.06  # "Imide C-CONHCO-"
Setting atom values ...
  0 settings made for charge
    set type 202 charge 0.035  # "Benzonitrile C-CN"
Setting atom values ...
  0 settings made for charge
    set type 203 charge 0.395  # "Benzonitrile -CN"
Setting atom values ...
  0 settings made for charge
    set type 204 charge -0.43  # "Benzonitrile -CN"
Setting atom values ...
  0 settings made for charge
    set type 205 charge 0.18  # "Chlorobenzene C-Cl"
Setting atom values ...
  0 settings made for charge
    set type 206 charge -0.18  # "Chlorobenzene C-Cl"
Setting atom values ...
  0 settings made for charge
    set type 207 charge -0.385  # "N-Phenylacetamide N"
Setting atom values ...
  0 settings made for charge
    set type 208 charge 0.085  # "N-Phenylacetamide N-CA"
Setting atom values ...
  0 settings made for charge
    set type 209 charge 0.52  # "Carboxylic Acid -COOH"
Setting atom values ...
  0 settings made for charge
    set type 210 charge -0.44  # "Carboxylic Acid C=O"
Setting atom values ...
  0 settings made for charge
    set type 211 charge -0.53  # "Carboxylic Acid -OH"
Setting atom values ...
  0 settings made for charge
    set type 212 charge 0.45  # "Carboxylic Acid -COOH"
Setting atom values ...
  0 settings made for charge
    set type 213 charge 0.7  # "Carboxylate COO-"
Setting atom values ...
  0 settings made for charge
    set type 214 charge -0.8  # "Carboxylate COO-"
Setting atom values ...
  0 settings made for charge
    set type 215 charge -0.28  # "Carboxylate CH3-COO-"
Setting atom values ...
  0 settings made for charge
    set type 216 charge -0.22  # "Carboxylate RCH2-COO-"
Setting atom values ...
  0 settings made for charge
    set type 217 charge -0.16  # "Carboxylate R2CH-COO-"
Setting atom values ...
  0 settings made for charge
    set type 218 charge -0.1  # "Carboxylate R3C-COO-"
Setting atom values ...
  0 settings made for charge
    set type 219 charge 0.45  # "Aldehyde/Acyl Halide C=O"
Setting atom values ...
  0 settings made for charge
    set type 220 charge -0.45  # "Aldehyde/Acyl Halide C=O"
Setting atom values ...
  0 settings made for charge
    set type 221 charge 0.0  # "Aldehyde/Formamide H-C=O"
Setting atom values ...
  0 settings made for charge
    set type 222 charge 0.47  # "Ketone C=O"
Setting atom values ...
  0 settings made for charge
    set type 223 charge -0.47  # "Ketone C=O"
Setting atom values ...
  0 settings made for charge
    set type 224 charge 0.06  # "Acyl H-C-COX"
Setting atom values ...
  0 settings made for charge
    set type 225 charge 0.04  # "C-Terminal ALA CA"
Setting atom values ...
  0 settings made for charge
    set type 226 charge -0.02  # "C-Terminal GLY CA"
Setting atom values ...
  0 settings made for charge
    set type 227 charge 0.1  # "C-Terminal AIB CA"
Setting atom values ...
  0 settings made for charge
    set type 228 charge -0.09  # "C-Terminal PRO CA"
Setting atom values ...
  0 settings made for charge
    set type 229 charge -0.4  # "Ammonium NH4+"
Setting atom values ...
  0 settings made for charge
    set type 230 charge -0.3  # "Ammonium RNH3+"
Setting atom values ...
  0 settings made for charge
    set type 231 charge 0.0  # "Ammonium R4N+"
Setting atom values ...
  0 settings made for charge
    set type 232 charge 0.35  # "Ammonium NH4+"
Setting atom values ...
  0 settings made for charge
    set type 233 charge 0.33  # "Ammonium RNH3+"
Setting atom values ...
  0 settings made for charge
    set type 234 charge 0.13  # "Ammonium CH3-NH3+"
Setting atom values ...
  0 settings made for charge
    set type 235 charge 0.19  # "CH3NH3+/N-Term GLY CA"
Setting atom values ...
  0 settings made for charge
    set type 236 charge 0.25  # "RCH2NH3+/N-Term ALA CA"
Setting atom values ...
  0 settings made for charge
    set type 237 charge 0.31  # "R3C-NH3+/N-Term AIB CA"
Setting atom values ...
  0 settings made for charge
    set type 238 charge 0.23  # "N-Terminal PRO CA"
Setting atom values ...
  0 settings made for charge
    set type 239 charge 0.17  # "N-Terminal PRO CD"
Setting atom values ...
  0 settings made for charge
    set type 240 charge 0.11  # "Ammonium CH3-NH2R+"
Setting atom values ...
  0 settings made for charge
    set type 241 charge 0.09  # "GLY Zwitterion CA"
Setting atom values ...
  0 settings made for charge
    set type 242 charge 0.15  # "ALA Zwitterion CA"
Setting atom values ...
  0 settings made for charge
    set type 243 charge -0.8  # "Guanidinium -NH2"
Setting atom values ...
  0 settings made for charge
    set type 244 charge 0.46  # "Guanidinium -NH2"
Setting atom values ...
  0 settings made for charge
    set type 245 charge 0.64  # "Guanidinium C+"
Setting atom values ...
  0 settings made for charge
    set type 246 charge -0.7  # "Guanidinium -NHR"
Setting atom values ...
  0 settings made for charge
    set type 247 charge 0.44  # "Guanidinium -NHR"
Setting atom values ...
  0 settings made for charge
    set type 248 charge 0.2  # "Me Guanidinium CH3-"
Setting atom values ...
  0 settings made for charge
    set type 249 charge -0.11  # "Et Guanidinium CH3-"
Setting atom values ...
  0 settings made for charge
    set type 250 charge 0.19  # "Et Guan -CH2- & ARG CD"
Setting atom values ...
  0 settings made for charge
    set type 251 charge -0.05  # "Pr Guan -CH2- & ARG CG"
Setting atom values ...
  0 settings made for charge
    set type 252 charge -0.2  # "Ammonium R2NH2+"
Setting atom values ...
  0 settings made for charge
    set type 253 charge 0.31  # "Ammonium R2NH2+"
Setting atom values ...
  0 settings made for charge
    set type 254 charge -0.46  # "Diaminopyridine N1"
Setting atom values ...
  0 settings made for charge
    set type 255 charge 0.36  # "Diaminopyridine C2"
Setting atom values ...
  0 settings made for charge
    set type 256 charge -0.85  # "Diaminopyridine -NH2"
Setting atom values ...
  0 settings made for charge
    set type 257 charge 0.37  # "Diaminopyridine -NH2"
Setting atom values ...
  0 settings made for charge
    set type 258 charge -0.15  # "Diaminopyridine C3"
Setting atom values ...
  0 settings made for charge
    set type 259 charge 0.1  # "Diaminopyridine H3"
Setting atom values ...
  0 settings made for charge
    set type 260 charge -0.04  # "Diaminopyridine C4"
Setting atom values ...
  0 settings made for charge
    set type 261 charge 0.1  # "Diaminopyridine H4"
Setting atom values ...
  0 settings made for charge
    set type 262 charge -0.6  # "Uracil & Thymine N1"
Setting atom values ...
  0 settings made for charge
    set type 263 charge 0.5  # "Uracil & Thymine C2"
Setting atom values ...
  0 settings made for charge
    set type 264 charge -0.51  # "Uracil & Thymine N3"
Setting atom values ...
  0 settings made for charge
    set type 265 charge 0.45  # "Uracil & Thymine C4"
Setting atom values ...
  0 settings made for charge
    set type 266 charge -0.07  # "Uracil & Thymine C5"
Setting atom values ...
  0 settings made for charge
    set type 267 charge 0.08  # "Uracil & Thymine C6"
Setting atom values ...
  0 settings made for charge
    set type 268 charge 0.41  # "Uracil & Thymine HN1"
Setting atom values ...
  0 settings made for charge
    set type 269 charge -0.4  # "Uracil & Thymine O2"
Setting atom values ...
  0 settings made for charge
    set type 270 charge 0.36  # "Uracil & Thymine HN3"
Setting atom values ...
  0 settings made for charge
    set type 271 charge -0.42  # "Uracil & Thymine O4"
Setting atom values ...
  0 settings made for charge
    set type 272 charge 0.1  # "Uracil & Thymine HC5"
Setting atom values ...
  0 settings made for charge
    set type 273 charge 0.1  # "Uracil & Thymine HC6"
Setting atom values ...
  0 settings made for charge
    set type 274 charge -0.14  # "Thymine CH3-"
Setting atom values ...
  0 settings made for charge
    set type 275 charge 0.08  # "Thymine CH3-"
Setting atom values ...
  0 settings made for charge
    set type 276 charge -0.56  # "Cytosine N1"
Setting atom values ...
  0 settings made for charge
    set type 277 charge 0.55  # "Cytosine C2"
Setting atom values ...
  0 settings made for charge
    set type 278 charge -0.54  # "Cytosine N3"
Setting atom values ...
  0 settings made for charge
    set type 279 charge 0.46  # "Cytosine C4"
Setting atom values ...
  0 settings made for charge
    set type 280 charge -0.06  # "Cytosine C5"
Setting atom values ...
  0 settings made for charge
    set type 281 charge 0.1  # "Cytosine C6"
Setting atom values ...
  0 settings made for charge
    set type 282 charge 0.38  # "Cytosine HN1"
Setting atom values ...
  0 settings made for charge
    set type 283 charge -0.48  # "Cytosine O2"
Setting atom values ...
  0 settings made for charge
    set type 284 charge -0.79  # "Cytosine NH2-"
Setting atom values ...
  0 settings made for charge
    set type 285 charge 0.385  # "Cytosine NH2- (N3)"
Setting atom values ...
  0 settings made for charge
    set type 286 charge 0.355  # "Cytosine NH2- (C5)"
Setting atom values ...
  0 settings made for charge
    set type 287 charge 0.1  # "Cytosine HC5"
Setting atom values ...
  0 settings made for charge
    set type 288 charge 0.1  # "Cytosine HC6"
Setting atom values ...
  0 settings made for charge
    set type 289 charge -0.53  # "Adenine N1"
Setting atom values ...
  0 settings made for charge
    set type 290 charge 0.22  # "Adenine C2"
Setting atom values ...
  0 settings made for charge
    set type 291 charge -0.55  # "Adenine N3"
Setting atom values ...
  0 settings made for charge
    set type 292 charge 0.38  # "Adenine C4"
Setting atom values ...
  0 settings made for charge
    set type 293 charge 0.15  # "Adenine C5"
Setting atom values ...
  0 settings made for charge
    set type 294 charge 0.44  # "Adenine C6"
Setting atom values ...
  0 settings made for charge
    set type 295 charge -0.49  # "Adenine & Guanine N7"
Setting atom values ...
  0 settings made for charge
    set type 296 charge 0.2  # "Adenine & Guanine C8"
Setting atom values ...
  0 settings made for charge
    set type 297 charge -0.5  # "Adenine & Guanine N9"
Setting atom values ...
  0 settings made for charge
    set type 298 charge 0.2  # "Adenine HC2"
Setting atom values ...
  0 settings made for charge
    set type 299 charge -0.81  # "Adenine NH2-"
Setting atom values ...
  0 settings made for charge
    set type 300 charge 0.385  # "Adenine NH2- (N1)"
Setting atom values ...
  0 settings made for charge
    set type 301 charge 0.355  # "Adenine NH2- (C5)"
Setting atom values ...
  0 settings made for charge
    set type 302 charge 0.2  # "Adenine & Guanine HC8"
Setting atom values ...
  0 settings made for charge
    set type 303 charge 0.35  # "Adenine & Guanine HN9"
Setting atom values ...
  0 settings made for charge
    set type 304 charge -0.56  # "Guanine N1"
Setting atom values ...
  0 settings made for charge
    set type 305 charge 0.46  # "Guanine C2"
Setting atom values ...
  0 settings made for charge
    set type 306 charge -0.51  # "Guanine N3"
Setting atom values ...
  0 settings made for charge
    set type 307 charge 0.34  # "Guanine C4"
Setting atom values ...
  0 settings made for charge
    set type 308 charge 0.12  # "Guanine C5"
Setting atom values ...
  0 settings made for charge
    set type 309 charge 0.52  # "Guanine C6"
Setting atom values ...
  0 settings made for charge
    set type 310 charge 0.38  # "Guanine HN1"
Setting atom values ...
  0 settings made for charge
    set type 311 charge -0.8  # "Guanine NH2-"
Setting atom values ...
  0 settings made for charge
    set type 312 charge 0.4  # "Guanine NH2-"
Setting atom values ...
  0 settings made for charge
    set type 313 charge -0.51  # "Guanine O6"
Setting atom values ...
  0 settings made for charge
    set type 314 charge -0.01  # "9-Me A & 9-Me-G CH3-"
Setting atom values ...
  0 settings made for charge
    set type 315 charge 0.12  # "9-Me-A & 9-Me-G CH3-"
Setting atom values ...
  0 settings made for charge
    set type 316 charge -0.01  # "1-Me-U & 1-Me-T CH3-"
Setting atom values ...
  0 settings made for charge
    set type 317 charge 0.14  # "1-Me-U & 1-Me-T CH3-"
Setting atom values ...
  0 settings made for charge
    set type 318 charge -0.01  # "1-Me-Cytosine CH3-"
Setting atom values ...
  0 settings made for charge
    set type 319 charge 0.13  # "1-Me-Cytosine CH3-"
Setting atom values ...
  0 settings made for charge
    set type 320 charge -0.64  # "CytosineH+ N1"
Setting atom values ...
  0 settings made for charge
    set type 321 charge 0.65  # "CytosineH+ C2"
Setting atom values ...
  0 settings made for charge
    set type 322 charge -0.74  # "CytosineH+ N3"
Setting atom values ...
  0 settings made for charge
    set type 323 charge 0.66  # "CytosineH+ C4"
Setting atom values ...
  0 settings made for charge
    set type 324 charge -0.06  # "CytosineH+ C5"
Setting atom values ...
  0 settings made for charge
    set type 325 charge 0.1  # "CytosineH+ C6"
Setting atom values ...
  0 settings made for charge
    set type 326 charge 0.49  # "CytosineH+ HN1"
Setting atom values ...
  0 settings made for charge
    set type 327 charge -0.3  # "CytosineH+ O2"
Setting atom values ...
  0 settings made for charge
    set type 328 charge 0.48  # "CytosineH+ HN3"
Setting atom values ...
  0 settings made for charge
    set type 329 charge -0.81  # "CytosineH+ NH2-"
Setting atom values ...
  0 settings made for charge
    set type 330 charge 0.46  # "CytosineH+ NH2- (N3)"
Setting atom values ...
  0 settings made for charge
    set type 331 charge 0.43  # "CytosineH+ NH2- (C5)"
Setting atom values ...
  0 settings made for charge
    set type 332 charge 0.14  # "CytosineH+ HC5"
Setting atom values ...
  0 settings made for charge
    set type 333 charge 0.14  # "CytosineH+ HC6"
Setting atom values ...
  0 settings made for charge
    set type 334 charge 0.01  # "1-Me-CytosineH+ CH3-"
Setting atom values ...
  0 settings made for charge
    set type 335 charge 0.16  # "1-Me-CytosineH+ CH3-"
Setting atom values ...
  0 settings made for charge
    set type 336 charge 0.78  # "DiMePhosphate P (UA)"
Setting atom values ...
  0 settings made for charge
    set type 337 charge -0.66  # "DiMePhosphate O=P-O (UA)"
Setting atom values ...
  0 settings made for charge
    set type 338 charge -0.43  # "DiMePhosphate CH3-O (UA)"
Setting atom values ...
  0 settings made for charge
    set type 339 charge 0.2  # "DiMePhosphate CH3-O (UA)"
Setting atom values ...
  0 settings made for charge
    set type 340 charge 0.18  # "Trifluorothymine CF3-"
Setting atom values ...
  0 settings made for charge
    set type 341 charge -0.06  # "Chloroalkene Cl2-C="
Setting atom values ...
  0 settings made for charge
    set type 342 charge 0.12  # "Chloroalkene Cl2-C="
Setting atom values ...
  0 settings made for charge
    set type 343 charge -1.0  # "Fluoride Ion F-"
Setting atom values ...
  0 settings made for charge
    set type 344 charge -1.0  # "Chloride Ion Cl-"
Setting atom values ...
  0 settings made for charge
    set type 345 charge -1.0  # "Bromide Ion Br-"
Setting atom values ...
  0 settings made for charge
    set type 346 charge -1.0  # "Iodide Ion I-"
Setting atom values ...
  0 settings made for charge
    set type 347 charge 1.0  # "Ammonium Ion NH4+ (UA)"
Setting atom values ...
  0 settings made for charge
    set type 348 charge 1.0  # "Lithium Ion Li+"
Setting atom values ...
  216 settings made for charge
    set type 349 charge 1.0  # "Sodium Ion Na+"
Setting atom values ...
  0 settings made for charge
    set type 350 charge 1.0  # "Potassium Ion K+"
Setting atom values ...
  0 settings made for charge
    set type 351 charge 1.0  # "Rubidium Ion Rb+"
Setting atom values ...
  0 settings made for charge
    set type 352 charge 1.0  # "Cesium Ion Cs+"
Setting atom values ...
  0 settings made for charge
    set type 353 charge 2.0  # "Magnesium Ion Mg+2"
Setting atom values ...
  0 settings made for charge
    set type 354 charge 2.0  # "Calcium Ion Ca+2"
Setting atom values ...
  0 settings made for charge
    set type 355 charge 2.0  # "Strontium Ion Sr+2"
Setting atom values ...
  0 settings made for charge
    set type 356 charge 2.0  # "Barium Ion Ba+2"
Setting atom values ...
  0 settings made for charge
    set type 357 charge -0.4  # "Methyl Thiolate CH3S-"
Setting atom values ...
  0 settings made for charge
    set type 358 charge 0.1  # "Methyl Thiolate CH3S-"
Setting atom values ...
  0 settings made for charge
    set type 359 charge -0.9  # "Methyl Thiolate CH3S-"
Setting atom values ...
  0 settings made for charge
    set type 360 charge -0.2  # "Methoxide CH3O-"
Setting atom values ...
  0 settings made for charge
    set type 361 charge 0.06  # "Methoxide CH3O-"
Setting atom values ...
  0 settings made for charge
    set type 362 charge -0.98  # "Methoxide CH3O-"
Setting atom values ...
  0 settings made for charge
    set type 363 charge -1.07  # "Nitrile Anion CNCH2-"
Setting atom values ...
  0 settings made for charge
    set type 364 charge 0.19  # "Nitrile Anion CNCH2-"
Setting atom values ...
  0 settings made for charge
    set type 365 charge 0.51  # "Nitrile Anion CNCH2-"
Setting atom values ...
  0 settings made for charge
    set type 366 charge -0.82  # "Nitrile Anion CNCH2-"
Setting atom values ...
  0 settings made for charge
    set type 367 charge -0.3  # "Me Amine Anion CH3NH-"
Setting atom values ...
  0 settings made for charge
    set type 368 charge 0.07  # "Me Amine Anion CH3NH-"
Setting atom values ...
  0 settings made for charge
    set type 369 charge -1.31  # "Me Amine Anion CH3NH-"
Setting atom values ...
  0 settings made for charge
    set type 370 charge 0.4  # "Methyl Amine Anion"
Setting atom values ...
  0 settings made for charge
    set type 371 charge -0.4  # "Ethyl Anion CH3-CH2-"
Setting atom values ...
  0 settings made for charge
    set type 372 charge 0.08  # "Ethyl Anion CH3-CH2-"
Setting atom values ...
  0 settings made for charge
    set type 373 charge 0.0  # "Ethyl Anion CH3-CH2-"
Setting atom values ...
  0 settings made for charge
    set type 374 charge 0.07  # "Ethyl Anion CH3-CH2-"
Setting atom values ...
  0 settings made for charge
    set type 375 charge -0.98  # "Ethyl Anion CH3-CH2-"
Setting atom values ...
  0 settings made for charge
    set type 376 charge -1.3  # "Hydroxide Ion OH-"
Setting atom values ...
  0 settings made for charge
    set type 377 charge 0.3  # "Hydroxide Ion OH-"
Setting atom values ...
  0 settings made for charge
    set type 378 charge 2.5  # "Uranyl Ion UO2+"
Setting atom values ...
  0 settings made for charge
    set type 379 charge -0.25  # "Uranyl Ion UO2+"
Setting atom values ...
  0 settings made for charge
    set type 380 charge -0.865  # "GTP O-(POn)2"
Setting atom values ...
  0 settings made for charge
    set type 381 charge 1.62  # "DiMe Phosphate P"
Setting atom values ...
  0 settings made for charge
    set type 382 charge -0.92  # "DiMe Phosphate O=P-O"
Setting atom values ...
  0 settings made for charge
    set type 383 charge -0.6  # "DiMe Phosphate CH3-O"
Setting atom values ...
  0 settings made for charge
    set type 384 charge 0.3  # "DiMe Phosphate CH3-O"
Setting atom values ...
  0 settings made for charge
    set type 385 charge -0.03  # "DiMe Phosphate CH3-O"
Setting atom values ...
  0 settings made for charge
    set type 386 charge 1.92  # "Me Phosphate P"
Setting atom values ...
  0 settings made for charge
    set type 387 charge -1.12  # "Me Phosphate O=PO2"
Setting atom values ...
  0 settings made for charge
    set type 388 charge -0.7  # "Me Phosphate CH3-O"
Setting atom values ...
  0 settings made for charge
    set type 389 charge 0.44  # "Me Phosphate CH3-O"
Setting atom values ...
  0 settings made for charge
    set type 390 charge -0.1  # "Me Phosphate CH3-O"
Setting atom values ...
  0 settings made for charge
    set type 391 charge 1.62  # "Me MePhosphonate P"
Setting atom values ...
  0 settings made for charge
    set type 392 charge -0.97  # "Me MePhosphonate O=P-O"
Setting atom values ...
  0 settings made for charge
    set type 393 charge -0.63  # "Me MePhosphonate CH3-O"
Setting atom values ...
  0 settings made for charge
    set type 394 charge 0.28  # "Me MePhosphonate CH3-O"
Setting atom values ...
  0 settings made for charge
    set type 395 charge -0.02  # "Me MePhosphonate CH3-O"
Setting atom values ...
  0 settings made for charge
    set type 396 charge -0.51  # "Me MePhosphonate CH3-P"
Setting atom values ...
  0 settings made for charge
    set type 397 charge 0.08  # "Me MePhosphonate CH3-P"
Setting atom values ...
  0 settings made for charge
    set type 398 charge -0.14  # "Bz MePhosphonate Cipso"
Setting atom values ...
  0 settings made for charge
    set type 399 charge 0.32  # "Bz MePhosphonate CH3-O"
Setting atom values ...
  0 settings made for charge
    set type 400 charge 0.02  # "Bz MePhosphonate CH3-O"
Setting atom values ...
  0 settings made for charge
    set type 401 charge -0.04  # "Me BzPhosphonate Cipso"
Setting atom values ...
  0 settings made for charge
    set type 402 charge -0.47  # "Me BzPhosphonate CH3-P"
Setting atom values ...
  0 settings made for charge
    set type 403 charge 0.12  # "Me BzPhosphonate CH3-P"
Setting atom values ...
  0 settings made for charge
    set type 404 charge 0.14  # "Ph Phosphate Cipso"
Setting atom values ...
  0 settings made for charge
    set type 405 charge 0.24  # "Barbiturate C6(R2)"
Setting atom values ...
  0 settings made for charge
    set type 406 charge 0.51  # "Ester -COOR"
Setting atom values ...
  0 settings made for charge
    set type 407 charge -0.43  # "Ester C=O"
Setting atom values ...
  0 settings made for charge
    set type 408 charge -0.33  # "Ester CO-O-R"
Setting atom values ...
  0 settings made for charge
    set type 409 charge 0.16  # "Methyl Ester -OCH3"
Setting atom values ...
  0 settings made for charge
    set type 410 charge 0.03  # "Ester -OCH<"
Setting atom values ...
  0 settings made for charge
    set type 411 charge 0.635  # "Benzoic Acid -COOH"
Setting atom values ...
  0 settings made for charge
    set type 412 charge 0.625  # "Aryl Ester -COOR"
Setting atom values ...
  0 settings made for charge
    set type 413 charge 0.135  # "Phenyl Ester Cipso"
Setting atom values ...
  0 settings made for charge
    set type 414 charge -0.215  # "Phenyl Ester -OPh"
Setting atom values ...
  0 settings made for charge
    set type 415 charge 1.48  # "Sulfonamide -SO2N<"
Setting atom values ...
  0 settings made for charge
    set type 416 charge -0.68  # "Sulfonamide -SO2N<"
Setting atom values ...
  0 settings made for charge
    set type 417 charge -0.54  # "Sulfonamide CH3-S"
Setting atom values ...
  0 settings made for charge
    set type 418 charge 0.18  # "Sulfonamide CH3-S"
Setting atom values ...
  0 settings made for charge
    set type 419 charge -1.0  # "Sulfonamide -SO2NH2"
Setting atom values ...
  0 settings made for charge
    set type 420 charge 0.44  # "Sulfonamide -SO2NH2"
Setting atom values ...
  0 settings made for charge
    set type 421 charge -0.8  # "Sulfonamide -SO2NHR"
Setting atom values ...
  0 settings made for charge
    set type 422 charge 0.41  # "Sulfonamide -SO2NHR"
Setting atom values ...
  0 settings made for charge
    set type 423 charge 0.18  # "N-Me Sulfonamide CH3-"
Setting atom values ...
  0 settings made for charge
    set type 424 charge 0.03  # "N-Me Sulfonamide CH3-"
Setting atom values ...
  0 settings made for charge
    set type 425 charge 0.39  # "Sulfonamide N-CH2-R"
Setting atom values ...
  0 settings made for charge
    set type 426 charge -0.06  # "Sulfonamide N-CH2-R"
Setting atom values ...
  0 settings made for charge
    set type 427 charge -0.18  # "N-Et Sulfonamide CH3-"
Setting atom values ...
  0 settings made for charge
    set type 428 charge 0.06  # "N-Et Sulfonamide CH3-"
Setting atom values ...
  0 settings made for charge
    set type 429 charge 0.0  # "Aryl Sulfonamide C-SO2N"
Setting atom values ...
  0 settings made for charge
    set type 430 charge 0.03  # "Aryl Sulfoxide C-S=O"
Setting atom values ...
  0 settings made for charge
    set type 431 charge 0.19  # "Et Ester -OCH2R"
Setting atom values ...
  0 settings made for charge
    set type 432 charge 0.22  # "i-Pr Ester -OCHR2"
Setting atom values ...
  0 settings made for charge
    set type 433 charge 0.25  # "t-Bu Ester -OCR3"
Setting atom values ...
  0 settings made for charge
    set type 434 charge 1.374  # "Sulfone R-SO2-R"
Setting atom values ...
  0 settings made for charge
    set type 435 charge -0.687  # "Sulfone R-SO2-R"
Setting atom values ...
  0 settings made for charge
    set type 436 charge 0.245  # "Alkyl Aryl Sulfoxide"
Setting atom values ...
  0 settings made for charge
    set type 437 charge 0.13  # "Dialkyl Sulfoxide"
Setting atom values ...
  0 settings made for charge
    set type 438 charge -0.42  # "Sulfoxide R-SO-R"
Setting atom values ...
  0 settings made for charge
    set type 439 charge -0.035  # "Sulfoxide CH3-SO-R"
Setting atom values ...
  0 settings made for charge
    set type 440 charge 0.025  # "Sulfoxide -CH2-SO-R"
Setting atom values ...
  0 settings made for charge
    set type 441 charge 0.075  # "TRP CG"
Setting atom values ...
  0 settings made for charge
    set type 442 charge -0.055  # "TRP CD"
Setting atom values ...
  0 settings made for charge
    set type 443 charge 0.13  # "TRP CE"
Setting atom values ...
  0 settings made for charge
    set type 444 charge -0.57  # "TRP NE, HID ND & HIE NE"
Setting atom values ...
  0 settings made for charge
    set type 445 charge 0.42  # "TRP HNE & HID/HIE HN"
Setting atom values ...
  0 settings made for charge
    set type 446 charge -0.005  # "HIS CB"
Setting atom values ...
  0 settings made for charge
    set type 447 charge 0.295  # "HID & HIE CE1"
Setting atom values ...
  0 settings made for charge
    set type 448 charge -0.015  # "HID CD2 & HIE CG"
Setting atom values ...
  0 settings made for charge
    set type 449 charge 0.015  # "HID CG & HIE CD2"
Setting atom values ...
  0 settings made for charge
    set type 450 charge 0.385  # "HIP CE1"
Setting atom values ...
  0 settings made for charge
    set type 451 charge 0.215  # "HIP CG & CD2"
Setting atom values ...
  0 settings made for charge
    set type 452 charge -0.49  # "HID NE & HIE ND"
Setting atom values ...
  0 settings made for charge
    set type 453 charge -0.54  # "HIP ND & NE"
Setting atom values ...
  0 settings made for charge
    set type 454 charge 0.46  # "HIP HND & HNE"
Setting atom values ...
  0 settings made for charge
    set type 455 charge -0.115  # "TRP CD1"
Setting atom values ...
  0 settings made for charge
    set type 456 charge 0.055  # "i-Pr Benzene -CHMe2"
Setting atom values ...
  0 settings made for charge
    set type 457 charge 0.115  # "t-Bu Benzene -CMe3"
Setting atom values ...
  0 settings made for charge
    set type 458 charge -0.03  # "Vinyl Ether =CH-OR"
Setting atom values ...
  0 settings made for charge
    set type 459 charge 0.085  # "Vinyl Ether =CR-OR"
Setting atom values ...
  0 settings made for charge
    set type 460 charge 0.0  # "Biphenyl C1"
Setting atom values ...
  0 settings made for charge
    set type 461 charge -0.678  # "Pyridine N"
Setting atom values ...
  0 settings made for charge
    set type 462 charge 0.473  # "Pyridine C1"
Setting atom values ...
  0 settings made for charge
    set type 463 charge -0.447  # "Pyridine C2"
Setting atom values ...
  0 settings made for charge
    set type 464 charge 0.227  # "Pyridine C3"
Setting atom values ...
  0 settings made for charge
    set type 465 charge 0.012  # "Pyridine H1"
Setting atom values ...
  0 settings made for charge
    set type 466 charge 0.155  # "Pyridine H2"
Setting atom values ...
  0 settings made for charge
    set type 467 charge 0.065  # "Pyridine H3"
Setting atom values ...
  0 settings made for charge
    set type 468 charge -0.468  # "Pyrazine N"
Setting atom values ...
  0 settings made for charge
    set type 469 charge 0.192  # "Pyrazine CH"
Setting atom values ...
  0 settings made for charge
    set type 470 charge 0.042  # "Pyrazine CH"
Setting atom values ...
  0 settings made for charge
    set type 471 charge -0.839  # "Pyrimidine N"
Setting atom values ...
  0 settings made for charge
    set type 472 charge 0.874  # "Pyrimidine C2"
Setting atom values ...
  0 settings made for charge
    set type 473 charge 0.653  # "Pyrimidine C4"
Setting atom values ...
  0 settings made for charge
    set type 474 charge -0.689  # "Pyrimidine C5"
Setting atom values ...
  0 settings made for charge
    set type 475 charge -0.032  # "Pyrimidine HC2"
Setting atom values ...
  0 settings made for charge
    set type 476 charge 0.011  # "Pyrimidine HC4"
Setting atom values ...
  0 settings made for charge
    set type 477 charge 0.197  # "Pyrimidine HC5"
Setting atom values ...
  0 settings made for charge
    set type 478 charge -0.331  # "Pyridazine N"
Setting atom values ...
  0 settings made for charge
    set type 479 charge 0.378  # "Pyridazine C3"
Setting atom values ...
  0 settings made for charge
    set type 480 charge -0.16  # "Pyridazine C4"
Setting atom values ...
  0 settings made for charge
    set type 481 charge -0.009  # "Pyridazine HC3"
Setting atom values ...
  0 settings made for charge
    set type 482 charge 0.122  # "Pyridazine HC4"
Setting atom values ...
  0 settings made for charge
    set type 483 charge -0.239  # "Pyrrole N"
Setting atom values ...
  0 settings made for charge
    set type 484 charge -0.163  # "Pyrrole C2"
Setting atom values ...
  0 settings made for charge
    set type 485 charge -0.149  # "Pyrrole C3"
Setting atom values ...
  0 settings made for charge
    set type 486 charge 0.317  # "Pyrrole HN"
Setting atom values ...
  0 settings made for charge
    set type 487 charge 0.155  # "Pyrrole HC2"
Setting atom values ...
  0 settings made for charge
    set type 488 charge 0.118  # "Pyrrole HC3"
Setting atom values ...
  0 settings made for charge
    set type 489 charge -0.059  # "Pyrazole N1"
Setting atom values ...
  0 settings made for charge
    set type 490 charge -0.491  # "Pyrazole N2"
Setting atom values ...
  0 settings made for charge
    set type 491 charge 0.246  # "Pyrazole C3"
Setting atom values ...
  0 settings made for charge
    set type 492 charge -0.32  # "Pyrazole C4"
Setting atom values ...
  0 settings made for charge
    set type 493 charge -0.034  # "Pyrazole C5"
Setting atom values ...
  0 settings made for charge
    set type 494 charge 0.301  # "Pyrazole HN1"
Setting atom values ...
  0 settings made for charge
    set type 495 charge 0.072  # "Pyrazole HC3"
Setting atom values ...
  0 settings made for charge
    set type 496 charge 0.15  # "Pyrazole HC4"
Setting atom values ...
  0 settings made for charge
    set type 497 charge 0.135  # "Pyrazole HC5"
Setting atom values ...
  0 settings made for charge
    set type 498 charge -0.257  # "Imidazole N1"
Setting atom values ...
  216 settings made for charge
    set type 499 charge 0.275  # "Imidazole C2"
Setting atom values ...
  216 settings made for charge
    set type 500 charge -0.563  # "Imidazole N3"
Setting atom values ...
  216 settings made for charge
    set type 501 charge 0.185  # "Imidazole C4"
Setting atom values ...
  216 settings made for charge
    set type 502 charge -0.286  # "Imidazole C5"
Setting atom values ...
  216 settings made for charge
    set type 503 charge 0.306  # "Imidazole HN1"
Setting atom values ...
  216 settings made for charge
    set type 504 charge 0.078  # "Imidazole HC2"
Setting atom values ...
  216 settings made for charge
    set type 505 charge 0.075  # "Imidazole HC4"
Setting atom values ...
  216 settings made for charge
    set type 506 charge 0.187  # "Imidazole HC5"
Setting atom values ...
  216 settings made for charge
    set type 507 charge -0.19  # "Furan O"
Setting atom values ...
  0 settings made for charge
    set type 508 charge -0.019  # "Furan C2"
Setting atom values ...
  0 settings made for charge
    set type 509 charge -0.154  # "Furan C3"
Setting atom values ...
  0 settings made for charge
    set type 510 charge 0.142  # "Furan HC2"
Setting atom values ...
  0 settings made for charge
    set type 511 charge 0.126  # "Furan HC3"
Setting atom values ...
  0 settings made for charge
    set type 512 charge -0.257  # "Oxazole O"
Setting atom values ...
  0 settings made for charge
    set type 513 charge 0.511  # "Oxazole C2"
Setting atom values ...
  0 settings made for charge
    set type 514 charge -0.59  # "Oxazole N"
Setting atom values ...
  0 settings made for charge
    set type 515 charge 0.169  # "Oxazole C4"
Setting atom values ...
  0 settings made for charge
    set type 516 charge -0.148  # "Oxazole C5"
Setting atom values ...
  0 settings made for charge
    set type 517 charge 0.043  # "Oxazole HC2"
Setting atom values ...
  0 settings made for charge
    set type 518 charge 0.091  # "Oxazole HC4"
Setting atom values ...
  0 settings made for charge
    set type 519 charge 0.181  # "Oxazole HC5"
Setting atom values ...
  0 settings made for charge
    set type 520 charge -0.122  # "Isoxazole O"
Setting atom values ...
  0 settings made for charge
    set type 521 charge -0.413  # "Isoxazole N"
Setting atom values ...
  0 settings made for charge
    set type 522 charge 0.405  # "Isoxazole C3"
Setting atom values ...
  0 settings made for charge
    set type 523 charge -0.455  # "Isoxazole C4"
Setting atom values ...
  0 settings made for charge
    set type 524 charge 0.25  # "Isoxazole C5"
Setting atom values ...
  0 settings made for charge
    set type 525 charge 0.053  # "Isoxazole HC3"
Setting atom values ...
  0 settings made for charge
    set type 526 charge 0.184  # "Isoxazole HC4"
Setting atom values ...
  0 settings made for charge
    set type 527 charge 0.098  # "Isoxazole HC5"
Setting atom values ...
  0 settings made for charge
    set type 528 charge -0.5  # "Indole N1"
Setting atom values ...
  0 settings made for charge
    set type 529 charge 0.001  # "Indole C2"
Setting atom values ...
  0 settings made for charge
    set type 530 charge -0.39  # "Indole C3"
Setting atom values ...
  0 settings made for charge
    set type 531 charge -0.27  # "Indole C4"
Setting atom values ...
  0 settings made for charge
    set type 532 charge -0.127  # "Indole C5"
Setting atom values ...
  0 settings made for charge
    set type 533 charge -0.108  # "Indole C6"
Setting atom values ...
  0 settings made for charge
    set type 534 charge -0.258  # "Indole C7"
Setting atom values ...
  0 settings made for charge
    set type 535 charge 0.22  # "Indole C8"
Setting atom values ...
  0 settings made for charge
    set type 536 charge 0.225  # "Indole C9"
Setting atom values ...
  0 settings made for charge
    set type 537 charge 0.376  # "Indole HN1"
Setting atom values ...
  0 settings made for charge
    set type 538 charge 0.147  # "Indole HC2"
Setting atom values ...
  0 settings made for charge
    set type 539 charge 0.172  # "Indole HC3"
Setting atom values ...
  0 settings made for charge
    set type 540 charge 0.155  # "Indole HC4"
Setting atom values ...
  0 settings made for charge
    set type 541 charge 0.107  # "Indole HC5"
Setting atom values ...
  0 settings made for charge
    set type 542 charge 0.11  # "Indole HC6"
Setting atom values ...
  0 settings made for charge
    set type 543 charge 0.14  # "Indole HC7"
Setting atom values ...
  0 settings made for charge
    set type 544 charge -0.694  # "Quinoline N1"
Setting atom values ...
  0 settings made for charge
    set type 545 charge 0.425  # "Quinoline C2"
Setting atom values ...
  0 settings made for charge
    set type 546 charge -0.359  # "Quinoline C3"
Setting atom values ...
  0 settings made for charge
    set type 547 charge -0.008  # "Quinoline C4"
Setting atom values ...
  0 settings made for charge
    set type 548 charge -0.197  # "Quinoline C5"
Setting atom values ...
  0 settings made for charge
    set type 549 charge -0.112  # "Quinoline C6"
Setting atom values ...
  0 settings made for charge
    set type 550 charge -0.07  # "Quinoline C7"
Setting atom values ...
  0 settings made for charge
    set type 551 charge -0.307  # "Quinoline C8"
Setting atom values ...
  0 settings made for charge
    set type 552 charge 0.563  # "Quinoline C9"
Setting atom values ...
  0 settings made for charge
    set type 553 charge -0.051  # "Quinoline C10"
Setting atom values ...
  0 settings made for charge
    set type 554 charge 0.028  # "Quinoline HC2"
Setting atom values ...
  0 settings made for charge
    set type 555 charge 0.146  # "Quinoline HC3"
Setting atom values ...
  0 settings made for charge
    set type 556 charge 0.119  # "Quinoline HC4"
Setting atom values ...
  0 settings made for charge
    set type 557 charge 0.133  # "Quinoline HC5"
Setting atom values ...
  0 settings made for charge
    set type 558 charge 0.113  # "Quinoline HC6"
Setting atom values ...
  0 settings made for charge
    set type 559 charge 0.114  # "Quinoline HC7"
Setting atom values ...
  0 settings made for charge
    set type 560 charge 0.157  # "Quinoline HC8"
Setting atom values ...
  0 settings made for charge
    set type 561 charge -0.76  # "Purine N1"
Setting atom values ...
  0 settings made for charge
    set type 562 charge 0.679  # "Purine C2"
Setting atom values ...
  0 settings made for charge
    set type 563 charge -0.788  # "Purine N3"
Setting atom values ...
  0 settings made for charge
    set type 564 charge 0.736  # "Purine C4"
Setting atom values ...
  0 settings made for charge
    set type 565 charge 0.038  # "Purine C5"
Setting atom values ...
  0 settings made for charge
    set type 566 charge 0.343  # "Purine C6"
Setting atom values ...
  0 settings made for charge
    set type 567 charge -0.642  # "Purine N7"
Setting atom values ...
  0 settings made for charge
    set type 568 charge 0.452  # "Purine C8"
Setting atom values ...
  0 settings made for charge
    set type 569 charge -0.682  # "Purine N9"
Setting atom values ...
  0 settings made for charge
    set type 570 charge 0.024  # "Purine HC2"
Setting atom values ...
  0 settings made for charge
    set type 571 charge 0.101  # "Purine HC6"
Setting atom values ...
  0 settings made for charge
    set type 572 charge 0.086  # "Purine HC8"
Setting atom values ...
  0 settings made for charge
    set type 573 charge 0.413  # "Purine HN9"
Setting atom values ...
  0 settings made for charge
    set type 574 charge -0.03  # "Thiazole S"
Setting atom values ...
  0 settings made for charge
    set type 575 charge 0.242  # "Thiazole C2"
Setting atom values ...
  0 settings made for charge
    set type 576 charge -0.515  # "Thiazole N"
Setting atom values ...
  0 settings made for charge
    set type 577 charge 0.228  # "Thiazole C4"
Setting atom values ...
  0 settings made for charge
    set type 578 charge -0.299  # "Thiazole C5"
Setting atom values ...
  0 settings made for charge
    set type 579 charge 0.101  # "Thiazole HC2"
Setting atom values ...
  0 settings made for charge
    set type 580 charge 0.068  # "Thiazole HC4"
Setting atom values ...
  0 settings made for charge
    set type 581 charge 0.205  # "Thiazole HC5"
Setting atom values ...
  0 settings made for charge
    set type 582 charge -0.951  # "1,3,5-Triazine N"
Setting atom values ...
  0 settings made for charge
    set type 583 charge 0.965  # "1,3,5-Triazine CH"
Setting atom values ...
  0 settings made for charge
    set type 584 charge -0.014  # "1,3,5-Triazine CH"
Setting atom values ...
  0 settings made for charge
    set type 585 charge 0.13  # "Serotonin C5-OH"
Setting atom values ...
  0 settings made for charge
    set type 586 charge 0.052  # "Serotonin CH2 on C3"
Setting atom values ...
  0 settings made for charge
    set type 587 charge -0.599  # "1,10-Phenanthroline N"
Setting atom values ...
  0 settings made for charge
    set type 588 charge 0.392  # "1,10-Phenanthroline C2"
Setting atom values ...
  0 settings made for charge
    set type 589 charge -0.348  # "1,10-Phenanthroline C3"
Setting atom values ...
  0 settings made for charge
    set type 590 charge 0.02  # "1,10-Phenanthroline C4"
Setting atom values ...
  0 settings made for charge
    set type 591 charge -0.042  # "1,10-Phenanthroline C12"
Setting atom values ...
  0 settings made for charge
    set type 592 charge 0.347  # "1,10-Phenanthroline C11"
Setting atom values ...
  0 settings made for charge
    set type 593 charge -0.196  # "1,10-Phenanthroline C5"
Setting atom values ...
  0 settings made for charge
    set type 594 charge 0.032  # "1,10-Phenanthroline HC2"
Setting atom values ...
  0 settings made for charge
    set type 595 charge 0.146  # "1,10-Phenanthroline HC3"
Setting atom values ...
  0 settings made for charge
    set type 596 charge 0.108  # "1,10-Phenanthroline HC4"
Setting atom values ...
  0 settings made for charge
    set type 597 charge 0.14  # "1,10-Phenanthroline HC5"
Setting atom values ...
  0 settings made for charge
    set type 598 charge 0.122  # "1-Methylimidazole N1"
Setting atom values ...
  0 settings made for charge
    set type 599 charge 0.166  # "1-Methylimidazole C2"
Setting atom values ...
  0 settings made for charge
    set type 600 charge -0.58  # "1-Methylimidazole N3"
Setting atom values ...
  0 settings made for charge
    set type 601 charge 0.173  # "1-Methylimidazole C4"
Setting atom values ...
  0 settings made for charge
    set type 602 charge -0.395  # "1-Methylimidazole C5"
Setting atom values ...
  0 settings made for charge
    set type 603 charge -0.199  # "1-Methylimidazole CH3-"
Setting atom values ...
  0 settings made for charge
    set type 604 charge 0.118  # "1-Methylimidazole HC2"
Setting atom values ...
  0 settings made for charge
    set type 605 charge 0.093  # "1-Methylimidazole HC4"
Setting atom values ...
  0 settings made for charge
    set type 606 charge 0.208  # "1-Methylimidazole HC5"
Setting atom values ...
  0 settings made for charge
    set type 607 charge 0.098  # "1-Methylimidazole CH3-"
Setting atom values ...
  0 settings made for charge
    set type 608 charge -0.139  # "1-Et Imidazole RCH2-"
Setting atom values ...
  0 settings made for charge
    set type 609 charge -0.079  # "1-iPr Imidazole R2CH-"
Setting atom values ...
  0 settings made for charge
    set type 610 charge 0.099  # "1-MeO-Me-Imidazole CH2"
Setting atom values ...
  0 settings made for charge
    set type 611 charge -0.168  # "2-Me Pyridine CH3"
Setting atom values ...
  0 settings made for charge
    set type 612 charge -0.108  # "2-Et Pyridine CH2"
Setting atom values ...
  0 settings made for charge
    set type 613 charge -0.189  # "3-Me Pyridazine CH3"
Setting atom values ...
  0 settings made for charge
    set type 614 charge -0.129  # "3-Et Pyridazine CH2"
Setting atom values ...
  0 settings made for charge
    set type 615 charge -0.169  # "4-Me Pyrimidine CH3"
Setting atom values ...
  0 settings made for charge
    set type 616 charge -0.109  # "4-Et Pyrimidine CH2"
Setting atom values ...
  0 settings made for charge
    set type 617 charge -0.138  # "2-Me Pyrazine CH3"
Setting atom values ...
  0 settings made for charge
    set type 618 charge -0.078  # "2-Et Pyrazine CH2"
Setting atom values ...
  0 settings made for charge
    set type 619 charge -0.025  # "2-Me Pyrrole CH3"
Setting atom values ...
  0 settings made for charge
    set type 620 charge 0.035  # "2-Et Pyrrole CH2"
Setting atom values ...
  0 settings made for charge
    set type 621 charge -0.038  # "2-Me Furan CH3"
Setting atom values ...
  0 settings made for charge
    set type 622 charge 0.022  # "2-Et Furan CH2"
Setting atom values ...
  0 settings made for charge
    set type 623 charge -0.334  # "6-Mercaptopurine SH"
Setting atom values ...
  0 settings made for charge
    set type 624 charge 0.255  # "6-Mercaptopurine SH"
Setting atom values ...
  0 settings made for charge
    set type 625 charge 0.523  # "6-Mercaptopurine C6"
Setting atom values ...
  0 settings made for charge
    set type 626 charge 0.5  # "Beta-Lactam N-C=O"
Setting atom values ...
  0 settings made for charge
    set type 627 charge -0.14  # "Beta-Lactam N-C=O"
Setting atom values ...
  0 settings made for charge
    set type 628 charge 0.2275  # "Penicillin CH-N"
Setting atom values ...
  0 settings made for charge
    set type 629 charge 0.14  # "Penicillin CH-CO"
Setting atom values ...
  0 settings made for charge
    set type 630 charge -0.008  # "3-Me Indole CH3"
Setting atom values ...
  0 settings made for charge
    set type 631 charge 0.588  # "2-Phenyl Pyridine C2"
Setting atom values ...
  0 settings made for charge
    set type 632 charge -0.103  # "2-Phenyl Pyridine C2'"
Setting atom values ...
  0 settings made for charge
    set type 633 charge -0.332  # "2-Phenyl Pyridine C3"
Setting atom values ...
  0 settings made for charge
    set type 634 charge 0.04  # "2-Phenyl Pyridine C3'"
Setting atom values ...
  0 settings made for charge
    set type 635 charge 0.342  # "2-Phenyl Pyridine C4"
Setting atom values ...
  0 settings made for charge
    set type 636 charge -0.05  # "2-Phenyl Pyridine C4'"
Setting atom values ...
  0 settings made for charge
    set type 637 charge -0.205  # "Diphenyl Thioether S"
Setting atom values ...
  0 settings made for charge
    set type 638 charge 3.0  # "Actinium Ion Ac+3"
Setting atom values ...
  0 settings made for charge
    set type 639 charge 4.0  # "Thorium Ion Th+4"
Setting atom values ...
  0 settings made for charge
    set type 640 charge 3.0  # "Americium Ion Am+3"
Setting atom values ...
  0 settings made for charge
    set type 641 charge 0.619  # "t-Butyl Cation C+"
Setting atom values ...
  0 settings made for charge
    set type 642 charge -0.395  # "t-Butyl Cation CH3-"
Setting atom values ...
  0 settings made for charge
    set type 643 charge 0.174  # "t-Butyl Cation CH3-"
Setting atom values ...
  0 settings made for charge
    set type 644 charge 3.0  # "Lanthanum Ion La+3"
Setting atom values ...
  0 settings made for charge
    set type 645 charge 3.0  # "Neodymium Ion Nd+3"
Setting atom values ...
  0 settings made for charge
    set type 646 charge 3.0  # "Europium Ion Eu+3"
Setting atom values ...
  0 settings made for charge
    set type 647 charge 3.0  # "Gadolinium Ion Gd+3"
Setting atom values ...
  0 settings made for charge
    set type 648 charge 3.0  # "Ytterbium Ion Yb+3"
Setting atom values ...
  0 settings made for charge
    set type 649 charge -0.344  # "Cl..CH3..Cl- Sn2 TS"
Setting atom values ...
  0 settings made for charge
    set type 650 charge -0.628  # "Cl..CH3..Cl- Sn2 TS"
Setting atom values ...
  0 settings made for charge
    set type 651 charge 0.2  # "Cl..CH3..Cl- Sn2 TS"
Setting atom values ...
  0 settings made for charge
    set type 652 charge -0.12  # "Cyclopropane -CH2-"
Setting atom values ...
  0 settings made for charge
    set type 653 charge -0.06  # "Cyclopropane -CHR-"
Setting atom values ...
  0 settings made for charge
    set type 654 charge 0.0  # "Cyclopropane -CR2-"
Setting atom values ...
  0 settings made for charge
    set type 655 charge -0.23  # "Cyclopentadienyl Anion"
Setting atom values ...
  0 settings made for charge
    set type 656 charge 0.03  # "Cyclopentadienyl Anion"
Setting atom values ...
  0 settings made for charge
    set type 657 charge -0.099  # "Cyclopentadienyl Radical"
Setting atom values ...
  0 settings made for charge
    set type 658 charge 0.099  # "Cyclopentadienyl Radical"
Setting atom values ...
  0 settings made for charge
    set type 659 charge 0.22  # "Fluorobenzene CF"
Setting atom values ...
  0 settings made for charge
    set type 660 charge -0.22  # "Fluorobenzene CF"
Setting atom values ...
  0 settings made for charge
    set type 661 charge 0.13  # "Hexafluorobenzene CF"
Setting atom values ...
  0 settings made for charge
    set type 662 charge -0.13  # "Hexafluorobenzene CF"
Setting atom values ...
  0 settings made for charge
    set type 663 charge -0.22  # "Bromide -CH2-Br (UA)"
Setting atom values ...
  0 settings made for charge
    set type 664 charge 0.22  # "Bromide -CH2-Br (UA)"
Setting atom values ...
  0 settings made for charge
    set type 665 charge 0.15  # "TrifluoroMeBenzene C-CF3"
Setting atom values ...
  0 settings made for charge
    set type 666 charge 0.45  # "TrifluoroMeBenzene CF3-"
Setting atom values ...
  0 settings made for charge
    set type 667 charge -0.2  # "TrifluoroMeBenzene CF3-"
Setting atom values ...
  0 settings made for charge
    set type 668 charge 0.2  # "Difluorobenzene CF"
Setting atom values ...
  0 settings made for charge
    set type 669 charge -0.2  # "Difluorobenzene CF"
Setting atom values ...
  0 settings made for charge
    set type 670 charge 0.2  # "Bromobenzene CBr"
Setting atom values ...
  0 settings made for charge
    set type 671 charge -0.2  # "Bromobenzene CBr"
Setting atom values ...
  0 settings made for charge
    set type 672 charge 0.1  # "Iodobenzene CI"
Setting atom values ...
  0 settings made for charge
    set type 673 charge -0.1  # "Iodobenzene CI"
Setting atom values ...
  0 settings made for charge
    set type 674 charge 0.055  # "cProp/cBut Benzene C-Ar"
Setting atom values ...
  0 settings made for charge
    set type 675 charge -0.22  # "Thiophenol SH"
Setting atom values ...
  0 settings made for charge
    set type 676 charge 0.065  # "Thiophenol C-SH"
Setting atom values ...
  0 settings made for charge
    set type 677 charge 0.013  # "Benzamidine CG"
Setting atom values ...
  0 settings made for charge
    set type 678 charge -0.106  # "Benzamidine CD"
Setting atom values ...
  0 settings made for charge
    set type 679 charge -0.09  # "Benzamidine CE"
Setting atom values ...
  0 settings made for charge
    set type 680 charge -0.119  # "Benzamidine CZ"
Setting atom values ...
  0 settings made for charge
    set type 681 charge 0.141  # "Benzamidine HCD"
Setting atom values ...
  0 settings made for charge
    set type 682 charge 0.129  # "Benzamidine HCE"
Setting atom values ...
  0 settings made for charge
    set type 683 charge 0.827  # "Benzamidine C+"
Setting atom values ...
  0 settings made for charge
    set type 684 charge -0.885  # "Benzamidine -NH2"
Setting atom values ...
  0 settings made for charge
    set type 685 charge 0.426  # "Benzamidine H1-N"
Setting atom values ...
  0 settings made for charge
    set type 686 charge 0.465  # "Benzamidine H2-N"
Setting atom values ...
  0 settings made for charge
    set type 687 charge 0.119  # "Benzamidine HCG"
Setting atom values ...
  0 settings made for charge
    set type 688 charge -0.02  # "Neutral MeGdn CH3-"
Setting atom values ...
  0 settings made for charge
    set type 689 charge 0.04  # "Neutral ARG CD"
Setting atom values ...
  0 settings made for charge
    set type 690 charge -0.62  # "Neutral ARG NE"
Setting atom values ...
  0 settings made for charge
    set type 691 charge -0.785  # "Neutral ARG N1 (HN=C)"
Setting atom values ...
  0 settings made for charge
    set type 692 charge -0.785  # "Neutral ARG N2 (H2N-C)"
Setting atom values ...
  0 settings made for charge
    set type 693 charge 0.55  # "Neutral ARG CZ (>C=)"
Setting atom values ...
  0 settings made for charge
    set type 694 charge -0.56  # "Alkyl Nitrile -CN"
Setting atom values ...
  0 settings made for charge
    set type 695 charge 0.46  # "Alkyl Nitrile -CN"
Setting atom values ...
  0 settings made for charge
    set type 696 charge -0.08  # "Acetonitrile CH3-CN"
Setting atom values ...
  0 settings made for charge
    set type 697 charge -0.02  # "Alkyl Nitrile RCH2-CN"
Setting atom values ...
  0 settings made for charge
    set type 698 charge 0.04  # "Alkyl Nitrile R2CH-CN"
Setting atom values ...
  0 settings made for charge
    set type 699 charge 0.1  # "Alkyl Nitrile R3C-CN"
Setting atom values ...
  0 settings made for charge
    set type 700 charge 0.06  # "Alkyl Nitrile H-C-CN"
Setting atom values ...
  0 settings made for charge
    set type 701 charge 0.54  # "Nitroalkane -NO2"
Setting atom values ...
  0 settings made for charge
    set type 702 charge -0.37  # "Nitroalkane -NO2"
Setting atom values ...
  0 settings made for charge
    set type 703 charge 0.02  # "Nitromethane CH3-NO2"
Setting atom values ...
  0 settings made for charge
    set type 704 charge 0.06  # "Nitroalkane H-C-NO2"
Setting atom values ...
  0 settings made for charge
    set type 705 charge 0.08  # "Nitroalkane RCH2-NO2"
Setting atom values ...
  0 settings made for charge
    set type 706 charge 0.14  # "Nitroalkane R2CH-NO2"
Setting atom values ...
  0 settings made for charge
    set type 707 charge 0.2  # "Nitroalkane R3C-NO2"
Setting atom values ...
  0 settings made for charge
    set type 708 charge 0.65  # "Nitrobenzene -NO2"
Setting atom values ...
  0 settings made for charge
    set type 709 charge 0.09  # "Nitrobenzene C-NO2"
Setting atom values ...
  0 settings made for charge
    set type 710 charge 0.035  # "Benzonitrile -CH2-"
Setting atom values ...
  0 settings made for charge
    set type 711 charge -0.9  # "Neutral Benzamidine N"
Setting atom values ...
  0 settings made for charge
    set type 712 charge -0.5  # "Propylene Carbonate C=O"
Setting atom values ...
  0 settings made for charge
    set type 713 charge 0.86  # "Propylene Carbonate C=O"
Setting atom values ...
  0 settings made for charge
    set type 714 charge -0.45  # "Propylene Carbonate C-O"
Setting atom values ...
  0 settings made for charge
    set type 715 charge 0.21  # "Propylene Carbonate CH2"
Setting atom values ...
  0 settings made for charge
    set type 716 charge 0.16  # "Propylene Carbonate CH"
Setting atom values ...
  0 settings made for charge
    set type 717 charge -0.1  # "Propylene Carbonate CH3"
Setting atom values ...
  0 settings made for charge
    set type 718 charge 0.03  # "Propylene Carbonate CH2"
Setting atom values ...
  0 settings made for charge
    set type 719 charge 0.03  # "Propylene Carbonate CH"
Setting atom values ...
  0 settings made for charge
    set type 720 charge 0.06  # "Propylene Carbonate CH3"
Setting atom values ...
  0 settings made for charge
    set type 721 charge -0.78  # "GTP O-(POn)2"
Setting atom values ...
  0 settings made for charge
    set type 722 charge 0.9684  # "Phosphonium R4P+"
Setting atom values ...
  0 settings made for charge
    set type 723 charge -0.5081  # "Phosphonium CH3-PR3+"
Setting atom values ...
  0 settings made for charge
    set type 724 charge -0.008  # "Phosphonium RCH2-PR3+"
Setting atom values ...
  0 settings made for charge
    set type 725 charge 0.172  # "Phosphonium CH3-PR3+"
Setting atom values ...
  0 settings made for charge
    set type 726 charge 1.34  # "Hexafluorophosphate Ion"
Setting atom values ...
  0 settings made for charge
    set type 727 charge -0.39  # "Hexafluorophosphate Ion"
Setting atom values ...
  0 settings made for charge
    set type 728 charge 0.794  # "Nitrate Ion NO3-"
Setting atom values ...
  0 settings made for charge
    set type 729 charge -0.598  # "Nitrate Ion NO3-"
Setting atom values ...
  0 settings made for charge
    set type 730 charge -0.9  # "Amine RNH2"
Setting atom values ...
  0 settings made for charge
    set type 731 charge -0.78  # "Amine R2NH"
Setting atom values ...
  0 settings made for charge
    set type 732 charge -0.63  # "Amine R3N"
Setting atom values ...
  0 settings made for charge
    set type 733 charge 0.0  # "Amine CH3-NH2"
Setting atom values ...
  0 settings made for charge
    set type 734 charge 0.02  # "Amine CH3-NHR"
Setting atom values ...
  0 settings made for charge
    set type 735 charge 0.03  # "Amine CH3-NR2"
Setting atom values ...
  0 settings made for charge
    set type 736 charge 0.06  # "Amine RCH2-NH2"
Setting atom values ...
  0 settings made for charge
    set type 737 charge 0.08  # "Amine RCH2-NHR"
Setting atom values ...
  0 settings made for charge
    set type 738 charge 0.09  # "Amine RCH2-NR2"
Setting atom values ...
  0 settings made for charge
    set type 739 charge 0.36  # "Amine RNH2"
Setting atom values ...
  0 settings made for charge
    set type 740 charge 0.38  # "Amine R2NH"
Setting atom values ...
  0 settings made for charge
    set type 741 charge 0.06  # "Amine H-C-N"
Setting atom values ...
  0 settings made for charge
    set type 742 charge 0.12  # "Amine R2CH-NH2"
Setting atom values ...
  0 settings made for charge
    set type 743 charge 0.18  # "Amine R3C-NH2"
Setting atom values ...
  0 settings made for charge
    set type 744 charge 0.14  # "Amine R2CH-NHR"
Setting atom values ...
  0 settings made for charge
    set type 745 charge 0.15  # "Amine R2CH-NR2"
Setting atom values ...
  0 settings made for charge
    set type 746 charge 0.18  # "Aniline C-NH2"
Setting atom values ...
  0 settings made for charge
    set type 747 charge 0.2  # "N-Me Aniline C-NHR"
Setting atom values ...
  0 settings made for charge
    set type 748 charge 0.21  # "N-DiMe Aniline C-NR2"
Setting atom values ...
  0 settings made for charge
    set type 749 charge 0.115  # "Benzyl Amine -CH2NH2"
Setting atom values ...
  0 settings made for charge
    set type 750 charge 0.175  # "Benzyl Amine -CHRNH2"
Setting atom values ...
  0 settings made for charge
    set type 751 charge 0.235  # "Benzyl Amine -CR2NH2"
Setting atom values ...
  0 settings made for charge
    set type 752 charge 0.195  # "Benzyl Ether -CH2OR"
Setting atom values ...
  0 settings made for charge
    set type 753 charge 0.1525  # "Benzyl Sulfide -CH2SH"
Setting atom values ...
  0 settings made for charge
    set type 754 charge 0.135  # "Benzyl Amine -CH2NHR"
Setting atom values ...
  0 settings made for charge
    set type 755 charge -0.21  # "Alkyne HCC-"
Setting atom values ...
  0 settings made for charge
    set type 756 charge 0.2  # "Alkyne HCC-"
Setting atom values ...
  0 settings made for charge
    set type 757 charge 0.01  # "Alkyne RCCH R w/ 2/3 H"
Setting atom values ...
  0 settings made for charge
    set type 758 charge 0.01  # "Alkyne RCCH R w/ 1 H"
Setting atom values ...
  0 settings made for charge
    set type 759 charge 0.01  # "Alkyne RCCH R w/ O H/Ph"
Setting atom values ...
  0 settings made for charge
    set type 760 charge 0.06  # "Alkyne H-C-CC-"
Setting atom values ...
  0 settings made for charge
    set type 761 charge 0.45  # "A & G Sugar C1'"
Setting atom values ...
  0 settings made for charge
    set type 762 charge 0.48  # "C Sugar C1'"
Setting atom values ...
  0 settings made for charge
    set type 763 charge 0.51  # "U & T Sugar C1'"
Setting atom values ...
  0 settings made for charge
    set type 764 charge -0.655  # "Sugar O5'"
Setting atom values ...
  0 settings made for charge
    set type 765 charge 0.39  # "Sugar H3' (-OH)"
Setting atom values ...
  0 settings made for charge
    set type 766 charge -0.5  # "A & G Nucleoside N9"
Setting atom values ...
  0 settings made for charge
    set type 767 charge -0.56  # "C Nucleoside N1"
Setting atom values ...
  0 settings made for charge
    set type 768 charge -0.6  # "U & T Nucleoside N1"
Setting atom values ...
  0 settings made for charge
    set type 769 charge 0.0  # "Alkyne RCCR"
Setting atom values ...
  0 settings made for charge
    set type 770 charge -0.1  # "Ammonium R3NH+"
Setting atom values ...
  0 settings made for charge
    set type 771 charge 0.29  # "Ammonium R3NH+"
Setting atom values ...
  0 settings made for charge
    set type 772 charge 0.09  # "Ammonium CH3-NHR2+"
Setting atom values ...
  0 settings made for charge
    set type 773 charge 0.15  # "Ammonium RCH2-NHR2+"
Setting atom values ...
  0 settings made for charge
    set type 774 charge 0.21  # "Ammonium R2CH-NHR2+"
Setting atom values ...
  0 settings made for charge
    set type 775 charge 0.27  # "Ammonium R3C-NHR2+"
Setting atom values ...
  0 settings made for charge
    set type 776 charge 0.096  # "2-Phenyl Furan C2"
Setting atom values ...
  0 settings made for charge
    set type 777 charge -0.039  # "2-Phenyl Furan C3"
Setting atom values ...
  0 settings made for charge
    set type 778 charge 0.027  # "2-Phenyl Furan C2'"
Setting atom values ...
  0 settings made for charge
    set type 779 charge 0.011  # "2-Phenyl Furan C3'"
Setting atom values ...
  0 settings made for charge
    set type 780 charge 0.074  # "GLY Zwitterion HA"
Setting atom values ...
  0 settings made for charge
    set type 781 charge -0.029  # "GLY Zwitterion CA"
Setting atom values ...
  0 settings made for charge
    set type 782 charge 0.7  # "GLY Zwitterion C"
Setting atom values ...
  0 settings made for charge
    set type 783 charge -0.352  # "GLY Zwitterion N"
Setting atom values ...
  0 settings made for charge
    set type 784 charge -0.709  # "GLY Zwitterion O"
Setting atom values ...
  0 settings made for charge
    set type 785 charge 0.317  # "GLY Zwitterion HN"
Setting atom values ...
  0 settings made for charge
    set type 786 charge -0.22  # "Alkyl Fluoride C-F"
Setting atom values ...
  0 settings made for charge
    set type 787 charge 0.02  # "Alkyl Fluoride RCH2-F"
Setting atom values ...
  0 settings made for charge
    set type 788 charge 0.1  # "Alkyl Fluoride H-C-F"
Setting atom values ...
  0 settings made for charge
    set type 789 charge 0.12  # "Alkyl Fluoride R2CH-F"
Setting atom values ...
  0 settings made for charge
    set type 790 charge 0.22  # "Alkyl Fluoride R3C-F"
Setting atom values ...
  0 settings made for charge
    set type 791 charge 0.36  # "Perfluoroalkane CF3-"
Setting atom values ...
  0 settings made for charge
    set type 792 charge 0.24  # "Perfluoroalkane -CF2-"
Setting atom values ...
  0 settings made for charge
    set type 793 charge 0.12  # "Perfluoroalkane >CF-"
Setting atom values ...
  0 settings made for charge
    set type 794 charge 0.48  # "Tetrafluoromethane CF4"
Setting atom values ...
  0 settings made for charge
    set type 795 charge -0.12  # "Perfluoroalkane C-F"
Setting atom values ...
  0 settings made for charge
    set type 796 charge 0.25  # "DifluoroMeBenzene -CHF2"
Setting atom values ...
  0 settings made for charge
    set type 797 charge 0.15  # "DifluoroMeBenzene -CHF2"
Setting atom values ...
  0 settings made for charge
    set type 798 charge -0.08  # "Fluoroacetate FCH2-COO-"
Setting atom values ...
  0 settings made for charge
    set type 799 charge -0.106  # "Chloroacetate ClCH2-COO-"
Setting atom values ...
  0 settings made for charge
    set type 800 charge -0.2  # "Alkyl Chloride C-Cl"
Setting atom values ...
  0 settings made for charge
    set type 801 charge -0.006  # "Alkyl Chloride RCH2-Cl"
Setting atom values ...
  0 settings made for charge
    set type 802 charge 0.103  # "Alkyl Chloride H-C-Cl"
Setting atom values ...
  0 settings made for charge
    set type 803 charge 0.097  # "Alkyl Chloride R2CH-Cl"
Setting atom values ...
  0 settings made for charge
    set type 804 charge 0.2  # "Alkyl Chloride R3C-Cl"
Setting atom values ...
  0 settings made for charge
    set type 805 charge -0.2  # "Alkyl Bromide C-Br"
Setting atom values ...
  0 settings made for charge
    set type 806 charge -0.006  # "Alkyl Bromide RCH2-Br"
Setting atom values ...
  0 settings made for charge
    set type 807 charge 0.103  # "Alkyl Bromide H-C-Br"
Setting atom values ...
  0 settings made for charge
    set type 808 charge 0.097  # "Alkyl Bromide R2CH-Br"
Setting atom values ...
  0 settings made for charge
    set type 809 charge 0.2  # "Alkyl Bromide R3C-Br"
Setting atom values ...
  0 settings made for charge
    set type 810 charge -0.08  # "Acyl Fluoride F-C=O"
Setting atom values ...
  0 settings made for charge
    set type 811 charge -0.08  # "Acyl Chloride Cl-C=O"
Setting atom values ...
  0 settings made for charge
    set type 812 charge -0.08  # "Acyl Bromide Br-C=O"
Setting atom values ...
  0 settings made for charge
    set type 813 charge 0.1  # "Trifluoroanisole C-OCF3"
Setting atom values ...
  0 settings made for charge
    set type 814 charge -0.25  # "Trifluoroanisole -OCF3"
Setting atom values ...
  0 settings made for charge
    set type 815 charge 0.6  # "Trifluoroanisole -OCF3"
Setting atom values ...
  0 settings made for charge
    set type 816 charge -0.15  # "Trifluoroanisole -OCF3"
Setting atom values ...
  0 settings made for charge
    set type 817 charge -0.025  # "N-Me,N-PhAcetamide N"
Setting atom values ...
  0 settings made for charge
    set type 818 charge -0.045  # "N-Me,N-PhAcetamide Cipso"
Setting atom values ...
  0 settings made for charge
    set type 819 charge 0.145  # "Benzyl Amine -CH2NR2"
Setting atom values ...
  0 settings made for charge
    set type 820 charge 0.888  # "Alkyl Hydroxamic Acid C"
Setting atom values ...
  0 settings made for charge
    set type 821 charge 1.003  # "Aryl Hydroxamic Acid C"
Setting atom values ...
  0 settings made for charge
    set type 822 charge -0.658  # "Hydroxamic Acid C=O"
Setting atom values ...
  0 settings made for charge
    set type 823 charge -0.634  # "Hydroxamic Acid N"
Setting atom values ...
  0 settings made for charge
    set type 824 charge 0.411  # "Hydroxamic Acid HN"
Setting atom values ...
  0 settings made for charge
    set type 825 charge -0.442  # "Hydroxamic Acid OH"
Setting atom values ...
  0 settings made for charge
    set type 826 charge 0.435  # "Hydroxamic Acid OH"
Setting atom values ...
  0 settings made for charge
    set type 827 charge 0.225  # "Benzyl Ether -CHROR"
Setting atom values ...
  0 settings made for charge
    set type 828 charge 0.255  # "Benzyl Ether -CR2OR"
Setting atom values ...
  0 settings made for charge
    set type 829 charge -0.034  # "3-Phenyl Pyrrole C3"
Setting atom values ...
  0 settings made for charge
    set type 830 charge 0.003  # "3-Phenyl Pyrrole C3'"
Setting atom values ...
  0 settings made for charge
    set type 831 charge 0.3  # "4-Phenyl Imidazole C4"
Setting atom values ...
  0 settings made for charge
    set type 832 charge -0.04  # "4-Phenyl Imidazole C4'"
Setting atom values ...
  0 settings made for charge
    set type 833 charge -0.0575  # "Diphenylmethane Cipso"
Setting atom values ...
  0 settings made for charge
    set type 834 charge 2.0  # "Zinc Ion Zn+2"
Setting atom values ...
  0 settings made for charge
    set type 835 charge -0.07  # "Alkyl Iodide RCH2-I"
Setting atom values ...
  0 settings made for charge
    set type 836 charge 0.03  # "Alkyl Iodide R2CH-I"
Setting atom values ...
  0 settings made for charge
    set type 837 charge 0.13  # "Alkyl Iodide R3C-I"
Setting atom values ...
  0 settings made for charge
    set type 838 charge -0.13  # "Alkyl Iodide C-I"
Setting atom values ...
  0 settings made for charge
    set type 839 charge 0.1  # "Alkyl Iodide H-C-I"
Setting atom values ...
  0 settings made for charge
    set type 840 charge -0.685  # "N-Ph Sulfonamide -NHPh"
Setting atom values ...
  0 settings made for charge
    set type 841 charge 0.155  # "N-Ph Sulfonamide Cipso"
Setting atom values ...
  0 settings made for charge
    set type 842 charge -0.1  # "Benzoate C-COO-"
Setting atom values ...
  0 settings made for charge
    set type 843 charge -0.427  # "N-Phenyl Urea N"
Setting atom values ...
  0 settings made for charge
    set type 844 charge 0.218  # "N-Phenyl Urea Cipso"
Setting atom values ...
  0 settings made for charge
    set type 845 charge 0.6  # "Tertiary Amide -CO-NR2"
Setting atom values ...
  0 settings made for charge
    set type 846 charge -0.6  # "Tertiary Amide -CO-NR2"
Setting atom values ...
  0 settings made for charge
    set type 847 charge -0.36  # "Tertiary Amide -CO-NR2"
Setting atom values ...
  0 settings made for charge
    set type 848 charge 0.0  # "Tertiary Amide -NRCH3"
Setting atom values ...
  0 settings made for charge
    set type 849 charge 0.06  # "Tertiary Amide -NRCH2R"
Setting atom values ...
  0 settings made for charge
    set type 850 charge 0.12  # "Tertiary Amide -NRCHR2"
Setting atom values ...
  0 settings made for charge
    set type 851 charge 0.18  # "Tertiary Amide -NRCR3"
Setting atom values ...
  0 settings made for charge
    set type 852 charge 0.06  # "Tertiary Amide H-C-N"
Setting atom values ...
  0 settings made for charge
    set type 853 charge 0.57  # "Tertiary Formamide C=O"
Setting atom values ...
  0 settings made for charge
    set type 854 charge -0.57  # "Tertiary Formamide C=O"
Setting atom values ...
  0 settings made for charge
    set type 855 charge 0.0  # "Tertiary Formamide H-C=O"
Setting atom values ...
  0 settings made for charge
    set type 856 charge 0.02  # "B2-Peptide CA"
Setting atom values ...
  0 settings made for charge
    set type 857 charge -0.04  # "B3-Peptide CA Main/N-Ter"
Setting atom values ...
  0 settings made for charge
    set type 858 charge 0.0  # "B3-Pep CB GLY Main/C-Ter"
Setting atom values ...
  0 settings made for charge
    set type 859 charge 0.06  # "B3-Pep CB ALA Main/C-Ter"
Setting atom values ...
  0 settings made for charge
    set type 860 charge -0.07  # "B3-Pep CB PRO Main/C-Ter"
Setting atom values ...
  0 settings made for charge
    set type 861 charge -0.14  # "B3-Peptide CA C-Ter"
Setting atom values ...
  0 settings made for charge
    set type 862 charge 0.17  # "B3-Peptide CB ALA N-Ter"
Setting atom values ...
  0 settings made for charge
    set type 863 charge 0.11  # "B3-Peptide CB GLY N-Ter"
Setting atom values ...
  0 settings made for charge
    set type 864 charge 0.15  # "B3-Peptide CB PRO N-Ter"
Setting atom values ...
  0 settings made for charge
    set type 865 charge 0.17  # "B3-Peptide CE PRO N-Ter"
Setting atom values ...
  0 settings made for charge
    set type 866 charge 1.0  # "Alkyl Silane R4Si"
Setting atom values ...
  0 settings made for charge
    set type 867 charge 0.85  # "Alkyl Silane R3SiH"
Setting atom values ...
  0 settings made for charge
    set type 868 charge 0.7  # "Alkyl Silane R2SiH2"
Setting atom values ...
  0 settings made for charge
    set type 869 charge 0.55  # "Alkyl Silane RSiH3"
Setting atom values ...
  0 settings made for charge
    set type 870 charge -0.1  # "Alkyl Silane H-C-Si"
Setting atom values ...
  0 settings made for charge
    set type 871 charge -0.43  # "Methyl Silane CH3-Si"
Setting atom values ...
  0 settings made for charge
    set type 872 charge -0.37  # "Alkyl Silane RCH2-Si"
Setting atom values ...
  0 settings made for charge
    set type 873 charge -0.31  # "Alkyl Silane R2CH-Si"
Setting atom values ...
  0 settings made for charge
    set type 874 charge -0.25  # "Alkyl Silane R3C-Si"
Setting atom values ...
  0 settings made for charge
    set type 875 charge -1.0  # "Fluoride Ion (GBSA)"
Setting atom values ...
  0 settings made for charge
    set type 876 charge -1.0  # "Chloride Ion (GBSA)"
Setting atom values ...
  0 settings made for charge
    set type 877 charge -1.0  # "Bromide Ion (GBSA)"
Setting atom values ...
  0 settings made for charge
    set type 878 charge -1.0  # "Iodide Ion (GBSA)"
Setting atom values ...
  0 settings made for charge
    set type 879 charge 1.0  # "Lithium Ion (GBSA)"
Setting atom values ...
  0 settings made for charge
    set type 880 charge 1.0  # "Sodium Ion (GBSA)"
Setting atom values ...
  0 settings made for charge
    set type 881 charge 1.0  # "Potassium Ion (GBSA)"
Setting atom values ...
  0 settings made for charge
    set type 882 charge 1.0  # "Rubidium Ion (GBSA)"
Setting atom values ...
  0 settings made for charge
    set type 883 charge 1.0  # "Cesium Ion (GBSA)"
Setting atom values ...
  0 settings made for charge
    set type 884 charge 2.0  # "Magnesium Ion (GBSA)"
Setting atom values ...
  0 settings made for charge
    set type 885 charge 2.0  # "Calcium Ion (GBSA)"
Setting atom values ...
  0 settings made for charge
    set type 886 charge 2.0  # "Strontium Ion (GBSA)"
Setting atom values ...
  0 settings made for charge
    set type 887 charge 2.0  # "Barium Ion (GBSA)"
Setting atom values ...
  0 settings made for charge
    set type 888 charge -0.05  # "Ammonium CH3-NR3+"
Setting atom values ...
  0 settings made for charge
    set type 889 charge 0.05  # "Ammonium RCH2-NR3+"
Setting atom values ...
  0 settings made for charge
    set type 890 charge 0.15  # "Ammonium R2CH-NR3+"
Setting atom values ...
  0 settings made for charge
    set type 891 charge 0.25  # "Ammonium R3C-NR3+"
Setting atom values ...
  0 settings made for charge
    set type 892 charge 0.1  # "Ammonium CH3-NR3+"
Setting atom values ...
  0 settings made for charge
    set type 893 charge 0.115  # "Anilinium Ar-NR3+"
Setting atom values ...
  0 settings made for charge
    set type 894 charge 0.135  # "Anilinium C-NR3+"
Setting atom values ...
  0 settings made for charge
    set type 895 charge 0.015  # "Anilinium Ar-NHR2+"
Setting atom values ...
  0 settings made for charge
    set type 896 charge 0.155  # "Anilinium C-NHR2+"
Setting atom values ...
  0 settings made for charge
    set type 897 charge 0.0  # "Triene R2-C= (mid C=C)"
Setting atom values ...
  0 settings made for charge
    set type 898 charge -0.115  # "Triene RH-C= (mid C=C)"
Setting atom values ...
  0 settings made for charge
    set type 899 charge 0.15  # "Allene/Ketene H-C=C=X"
Setting atom values ...
  0 settings made for charge
    set type 900 charge -0.25  # "Allene/Ketene H2C=C=X"
Setting atom values ...
  0 settings made for charge
    set type 901 charge -0.1  # "Allene/Ketene HRC=C=X"
Setting atom values ...
  0 settings made for charge
    set type 902 charge 0.05  # "Allene/Ketene R2C=C=X"
Setting atom values ...
  0 settings made for charge
    set type 903 charge -0.1  # "Allene =C="
Setting atom values ...
  0 settings made for charge
    set type 904 charge 0.2  # "Ketene =C="
Setting atom values ...
  0 settings made for charge
    set type 905 charge -0.25  # "Ketene C=O"
Setting atom values ...
  0 settings made for charge
    set type 906 charge 0.088  # "N-Me-HIS CB"
Setting atom values ...
  0 settings made for charge

# ------------------------------- Settings Section --------------------------

include         "system.in.settings"
    pair_coeff 1 1  0.061 2.94
    pair_coeff 2 2  0.118 3.905
    pair_coeff 3 3  0.105 3.75
    pair_coeff 4 4  0.21 2.96
    pair_coeff 5 5  0.17 3.0
    pair_coeff 6 6  0.16 3.91
    pair_coeff 7 7  0.0 0.0
    pair_coeff 8 8  0.294 3.73
    pair_coeff 9 9  0.207 3.775
    pair_coeff 10 10  0.175 3.905
    pair_coeff 11 11  0.16 3.91
    pair_coeff 12 12  0.145 3.96
    pair_coeff 13 13  0.118 3.905
    pair_coeff 14 14  0.14 3.85
    pair_coeff 15 15  0.08 3.85
    pair_coeff 16 16  0.115 3.8
    pair_coeff 17 17  0.11 3.75
    pair_coeff 18 18  0.05 3.8
    pair_coeff 19 19  0.105 3.75
    pair_coeff 20 20  0.17 3.07
    pair_coeff 21 21  0.0 0.0
    pair_coeff 22 22  0.207 3.775
    pair_coeff 23 23  0.118 3.905
    pair_coeff 24 24  0.25 3.7
    pair_coeff 25 25  0.25 3.55
    pair_coeff 26 26  0.25 3.55
    pair_coeff 27 27  0.25 3.55
    pair_coeff 28 28  0.0 0.0
    pair_coeff 29 29  0.0 0.0
    pair_coeff 30 30  0.207 3.775
    pair_coeff 31 31  0.118 3.905
    pair_coeff 32 32  0.17 3.8
    pair_coeff 33 33  0.118 3.8
    pair_coeff 34 34  0.17 3.8
    pair_coeff 35 35  0.118 3.8
    pair_coeff 36 36  0.17 3.2
    pair_coeff 37 37  0.15 3.65
    pair_coeff 38 38  0.207 3.775
    pair_coeff 39 39  0.08 3.85
    pair_coeff 40 40  0.05 3.8
    pair_coeff 41 41  0.17 3.0
    pair_coeff 42 42  0.17 3.8
    pair_coeff 43 43  0.118 3.8
    pair_coeff 44 44  0.118 3.8
    pair_coeff 45 45  0.3 3.4
    pair_coeff 46 46  0.08 3.8
    pair_coeff 47 47  0.3 3.47
    pair_coeff 48 48  0.05 3.8
    pair_coeff 49 49  0.266 3.47
    pair_coeff 50 50  0.395 3.56
    pair_coeff 51 51  0.28 2.93
    pair_coeff 52 52  0.16 3.81
    pair_coeff 53 53  0.21 2.96
    pair_coeff 54 54  0.17 3.25
    pair_coeff 55 55  0.115 3.8
    pair_coeff 56 56  0.17 3.8
    pair_coeff 57 57  0.0 0.0
    pair_coeff 58 58  0.02 2.556
    pair_coeff 59 59  0.069 2.78
    pair_coeff 60 60  0.2339 3.401
    pair_coeff 61 61  0.317 3.624
    pair_coeff 62 62  0.433 3.935
    pair_coeff 63 63  0.1521 3.15061
    pair_coeff 64 64  0.0 0.0
    pair_coeff 65 65  0.155 3.15365
    pair_coeff 66 66  0.0 0.0
    pair_coeff 67 67  0.0 0.0
    pair_coeff 68 68  0.15 3.176
    pair_coeff 69 69  0.0 0.0
    pair_coeff 70 70  0.1 3.27
    pair_coeff 71 71  0.0 0.0
    pair_coeff 72 72  0.0 0.0
    pair_coeff 73 73  0.16 3.12
    pair_coeff 74 74  0.0 0.0
    pair_coeff 75 75  0.0 0.0
    pair_coeff 76 76  0.1554 3.16557
    pair_coeff 77 77  0.0 0.0
    pair_coeff 78 78  0.17 3.42
    pair_coeff 79 79  0.0 0.0
    pair_coeff 80 80  0.066 3.5
    pair_coeff 81 81  0.066 3.5
    pair_coeff 82 82  0.066 3.5
    pair_coeff 83 83  0.066 3.5
    pair_coeff 84 84  0.066 3.5
    pair_coeff 85 85  0.03 2.5
    pair_coeff 86 86  0.076 3.55
    pair_coeff 87 87  0.076 3.55
    pair_coeff 88 88  0.076 3.55
    pair_coeff 89 89  0.03 2.42
    pair_coeff 90 90  0.07 3.55
    pair_coeff 91 91  0.03 2.42
    pair_coeff 92 92  0.07 3.55
    pair_coeff 93 93  0.066 3.5
    pair_coeff 94 94  0.066 3.5
    pair_coeff 95 95  0.076 3.55
    pair_coeff 96 96  0.17 3.12
    pair_coeff 97 97  0.0 0.0
    pair_coeff 98 98  0.03 2.5
    pair_coeff 99 99  0.066 3.5
    pair_coeff 100 100  0.066 3.5
    pair_coeff 101 101  0.066 3.5
    pair_coeff 102 102  0.066 3.5
    pair_coeff 103 103  0.062 3.25
    pair_coeff 104 104  0.17 3.07
    pair_coeff 105 105  0.0 0.0
    pair_coeff 106 106  0.061 2.94
    pair_coeff 107 107  0.03 2.5
    pair_coeff 108 108  0.07 3.55
    pair_coeff 109 109  0.17 3.07
    pair_coeff 110 110  0.0 0.0
    pair_coeff 111 111  0.17 3.07
    pair_coeff 112 112  0.0 0.0
    pair_coeff 113 113  0.17 3.07
    pair_coeff 114 114  0.0 0.0
    pair_coeff 115 115  0.066 3.5
    pair_coeff 116 116  0.066 3.5
    pair_coeff 117 117  0.066 3.5
    pair_coeff 118 118  0.03 2.5
    pair_coeff 119 119  0.14 2.9
    pair_coeff 120 120  0.076 3.55
    pair_coeff 121 121  0.14 2.9
    pair_coeff 122 122  0.14 2.9
    pair_coeff 123 123  0.066 3.5
    pair_coeff 124 124  0.066 3.5
    pair_coeff 125 125  0.066 3.5
    pair_coeff 126 126  0.066 3.5
    pair_coeff 127 127  0.03 2.5
    pair_coeff 128 128  0.14 2.9
    pair_coeff 129 129  0.17 3.07
    pair_coeff 130 130  0.0 0.0
    pair_coeff 131 131  0.066 3.5
    pair_coeff 132 132  0.03 2.5
    pair_coeff 133 133  0.066 3.5
    pair_coeff 134 134  0.03 2.5
    pair_coeff 135 135  0.066 3.5
    pair_coeff 136 136  0.03 2.5
    pair_coeff 137 137  0.066 3.5
    pair_coeff 138 138  0.03 2.5
    pair_coeff 139 139  0.066 3.5
    pair_coeff 140 140  0.066 3.5
    pair_coeff 141 141  0.07 3.55
    pair_coeff 142 142  0.25 3.55
    pair_coeff 143 143  0.25 3.7
    pair_coeff 144 144  0.25 3.55
    pair_coeff 145 145  0.25 3.55
    pair_coeff 146 146  0.0 0.0
    pair_coeff 147 147  0.0 0.0
    pair_coeff 148 148  0.066 3.5
    pair_coeff 149 149  0.066 3.5
    pair_coeff 150 150  0.066 3.5
    pair_coeff 151 151  0.066 3.5
    pair_coeff 152 152  0.066 3.5
    pair_coeff 153 153  0.066 3.5
    pair_coeff 154 154  0.066 3.5
    pair_coeff 155 155  0.066 3.5
    pair_coeff 156 156  0.066 3.5
    pair_coeff 157 157  0.066 3.5
    pair_coeff 158 158  0.066 3.5
    pair_coeff 159 159  0.066 3.5
    pair_coeff 160 160  0.066 3.5
    pair_coeff 161 161  0.066 3.5
    pair_coeff 162 162  0.066 3.5
    pair_coeff 163 163  0.07 3.55
    pair_coeff 164 164  0.25 3.55
    pair_coeff 165 165  0.066 3.5
    pair_coeff 166 166  0.066 3.5
    pair_coeff 167 167  0.066 3.5
    pair_coeff 168 168  0.3 3.4
    pair_coeff 169 169  0.076 3.55
    pair_coeff 170 170  0.07 3.55
    pair_coeff 171 171  0.066 3.5
    pair_coeff 172 172  0.066 3.5
    pair_coeff 173 173  0.105 3.75
    pair_coeff 174 174  0.105 3.75
    pair_coeff 175 175  0.105 3.75
    pair_coeff 176 176  0.105 3.75
    pair_coeff 177 177  0.105 3.75
    pair_coeff 178 178  0.21 2.96
    pair_coeff 179 179  0.17 3.25
    pair_coeff 180 180  0.17 3.25
    pair_coeff 181 181  0.17 3.25
    pair_coeff 182 182  0.0 0.0
    pair_coeff 183 183  0.0 0.0
    pair_coeff 184 184  0.066 3.5
    pair_coeff 185 185  0.066 3.5
    pair_coeff 186 186  0.066 3.5
    pair_coeff 187 187  0.066 3.5
    pair_coeff 188 188  0.066 3.5
    pair_coeff 189 189  0.105 3.75
    pair_coeff 190 190  0.21 2.96
    pair_coeff 191 191  0.17 3.25
    pair_coeff 192 192  0.0 0.0
    pair_coeff 193 193  0.17 3.25
    pair_coeff 194 194  0.105 3.75
    pair_coeff 195 195  0.21 2.96
    pair_coeff 196 196  0.0 0.0
    pair_coeff 197 197  0.02 2.5
    pair_coeff 198 198  0.066 3.5
    pair_coeff 199 199  0.066 3.5
    pair_coeff 200 200  0.066 3.5
    pair_coeff 201 201  0.066 3.5
    pair_coeff 202 202  0.07 3.55
    pair_coeff 203 203  0.15 3.65
    pair_coeff 204 204  0.17 3.2
    pair_coeff 205 205  0.07 3.55
    pair_coeff 206 206  0.3 3.4
    pair_coeff 207 207  0.17 3.25
    pair_coeff 208 208  0.07 3.55
    pair_coeff 209 209  0.105 3.75
    pair_coeff 210 210  0.21 2.96
    pair_coeff 211 211  0.17 3.0
    pair_coeff 212 212  0.0 0.0
    pair_coeff 213 213  0.105 3.75
    pair_coeff 214 214  0.21 2.96
    pair_coeff 215 215  0.066 3.5
    pair_coeff 216 216  0.066 3.5
    pair_coeff 217 217  0.066 3.5
    pair_coeff 218 218  0.066 3.5
    pair_coeff 219 219  0.105 3.75
    pair_coeff 220 220  0.21 2.96
    pair_coeff 221 221  0.015 2.42
    pair_coeff 222 222  0.105 3.75
    pair_coeff 223 223  0.21 2.96
    pair_coeff 224 224  0.015 2.42
    pair_coeff 225 225  0.066 3.5
    pair_coeff 226 226  0.066 3.5
    pair_coeff 227 227  0.066 3.5
    pair_coeff 228 228  0.066 3.5
    pair_coeff 229 229  0.17 3.25
    pair_coeff 230 230  0.17 3.25
    pair_coeff 231 231  0.17 3.25
    pair_coeff 232 232  0.0 0.0
    pair_coeff 233 233  0.0 0.0
    pair_coeff 234 234  0.066 3.5
    pair_coeff 235 235  0.066 3.5
    pair_coeff 236 236  0.066 3.5
    pair_coeff 237 237  0.066 3.5
    pair_coeff 238 238  0.066 3.5
    pair_coeff 239 239  0.066 3.5
    pair_coeff 240 240  0.066 3.5
    pair_coeff 241 241  0.066 3.5
    pair_coeff 242 242  0.066 3.5
    pair_coeff 243 243  0.17 3.25
    pair_coeff 244 244  0.0 0.0
    pair_coeff 245 245  0.05 3.55
    pair_coeff 246 246  0.17 3.25
    pair_coeff 247 247  0.0 0.0
    pair_coeff 248 248  0.066 3.5
    pair_coeff 249 249  0.066 3.5
    pair_coeff 250 250  0.066 3.5
    pair_coeff 251 251  0.066 3.5
    pair_coeff 252 252  0.17 3.25
    pair_coeff 253 253  0.0 0.0
    pair_coeff 254 254  0.17 3.25
    pair_coeff 255 255  0.08 3.5
    pair_coeff 256 256  0.17 3.25
    pair_coeff 257 257  0.0 0.0
    pair_coeff 258 258  0.08 3.5
    pair_coeff 259 259  0.05 2.5
    pair_coeff 260 260  0.08 3.5
    pair_coeff 261 261  0.05 2.5
    pair_coeff 262 262  0.17 3.25
    pair_coeff 263 263  0.105 3.75
    pair_coeff 264 264  0.17 3.25
    pair_coeff 265 265  0.105 3.75
    pair_coeff 266 266  0.08 3.5
    pair_coeff 267 267  0.08 3.5
    pair_coeff 268 268  0.0 0.0
    pair_coeff 269 269  0.21 2.96
    pair_coeff 270 270  0.0 0.0
    pair_coeff 271 271  0.21 2.96
    pair_coeff 272 272  0.05 2.5
    pair_coeff 273 273  0.05 2.5
    pair_coeff 274 274  0.08 3.5
    pair_coeff 275 275  0.05 2.5
    pair_coeff 276 276  0.17 3.25
    pair_coeff 277 277  0.105 3.75
    pair_coeff 278 278  0.17 3.25
    pair_coeff 279 279  0.08 3.5
    pair_coeff 280 280  0.08 3.5
    pair_coeff 281 281  0.08 3.5
    pair_coeff 282 282  0.0 0.0
    pair_coeff 283 283  0.21 2.96
    pair_coeff 284 284  0.17 3.25
    pair_coeff 285 285  0.0 0.0
    pair_coeff 286 286  0.0 0.0
    pair_coeff 287 287  0.05 2.5
    pair_coeff 288 288  0.05 2.5
    pair_coeff 289 289  0.17 3.25
    pair_coeff 290 290  0.08 3.5
    pair_coeff 291 291  0.17 3.25
    pair_coeff 292 292  0.08 3.5
    pair_coeff 293 293  0.08 3.5
    pair_coeff 294 294  0.08 3.5
    pair_coeff 295 295  0.17 3.25
    pair_coeff 296 296  0.08 3.5
    pair_coeff 297 297  0.17 3.25
    pair_coeff 298 298  0.05 2.5
    pair_coeff 299 299  0.17 3.25
    pair_coeff 300 300  0.0 0.0
    pair_coeff 301 301  0.0 0.0
    pair_coeff 302 302  0.05 2.5
    pair_coeff 303 303  0.0 0.0
    pair_coeff 304 304  0.17 3.25
    pair_coeff 305 305  0.08 3.5
    pair_coeff 306 306  0.17 3.25
    pair_coeff 307 307  0.08 3.5
    pair_coeff 308 308  0.08 3.5
    pair_coeff 309 309  0.105 3.75
    pair_coeff 310 310  0.0 0.0
    pair_coeff 311 311  0.17 3.25
    pair_coeff 312 312  0.0 0.0
    pair_coeff 313 313  0.21 2.96
    pair_coeff 314 314  0.08 3.5
    pair_coeff 315 315  0.05 2.5
    pair_coeff 316 316  0.08 3.5
    pair_coeff 317 317  0.05 2.5
    pair_coeff 318 318  0.08 3.5
    pair_coeff 319 319  0.05 2.5
    pair_coeff 320 320  0.17 3.25
    pair_coeff 321 321  0.105 3.75
    pair_coeff 322 322  0.17 3.25
    pair_coeff 323 323  0.08 3.5
    pair_coeff 324 324  0.08 3.5
    pair_coeff 325 325  0.08 3.5
    pair_coeff 326 326  0.0 0.0
    pair_coeff 327 327  0.21 2.96
    pair_coeff 328 328  0.0 0.0
    pair_coeff 329 329  0.17 3.25
    pair_coeff 330 330  0.0 0.0
    pair_coeff 331 331  0.0 0.0
    pair_coeff 332 332  0.05 2.5
    pair_coeff 333 333  0.05 2.5
    pair_coeff 334 334  0.08 3.5
    pair_coeff 335 335  0.05 2.5
    pair_coeff 336 336  0.2 3.74
    pair_coeff 337 337  0.21 2.96
    pair_coeff 338 338  0.17 3.0
    pair_coeff 339 339  0.066 3.55
    pair_coeff 340 340  0.08 3.5
    pair_coeff 341 341  0.3 3.4
    pair_coeff 342 342  0.076 3.55
    pair_coeff 343 343  0.71 3.05
    pair_coeff 344 344  0.71 4.02
    pair_coeff 345 345  0.71 4.28
    pair_coeff 346 346  0.71 4.81
    pair_coeff 347 347  0.0005 5.34
    pair_coeff 348 348  0.0005 2.87
    pair_coeff 349 349  0.0005 4.07
    pair_coeff 350 350  0.0005 5.17
    pair_coeff 351 351  0.0005 5.6
    pair_coeff 352 352  0.0005 6.2
    pair_coeff 353 353  0.875044 1.644471
    pair_coeff 354 354  0.449657 2.412031
    pair_coeff 355 355  0.118226 3.102688
    pair_coeff 356 356  0.047096 3.81661
    pair_coeff 357 357  0.3 4.2
    pair_coeff 358 358  0.05 2.5
    pair_coeff 359 359  0.5 4.25
    pair_coeff 360 360  0.3 4.2
    pair_coeff 361 361  0.05 2.5
    pair_coeff 362 362  0.25 3.15
    pair_coeff 363 363  0.3 4.2
    pair_coeff 364 364  0.05 2.5
    pair_coeff 365 365  0.15 3.65
    pair_coeff 366 366  0.25 3.4
    pair_coeff 367 367  0.3 4.2
    pair_coeff 368 368  0.05 2.5
    pair_coeff 369 369  0.25 3.4
    pair_coeff 370 370  0.05 2.5
    pair_coeff 371 371  0.3 4.2
    pair_coeff 372 372  0.05 2.5
    pair_coeff 373 373  0.3 4.2
    pair_coeff 374 374  0.05 2.5
    pair_coeff 375 375  0.0 0.0
    pair_coeff 376 376  0.25 3.2
    pair_coeff 377 377  0.0 0.0
    pair_coeff 378 378  0.4 2.81524
    pair_coeff 379 379  0.2 3.11815
    pair_coeff 380 380  0.14 2.9
    pair_coeff 381 381  0.2 3.74
    pair_coeff 382 382  0.2 3.15
    pair_coeff 383 383  0.14 2.9
    pair_coeff 384 384  0.066 3.5
    pair_coeff 385 385  0.03 2.5
    pair_coeff 386 386  0.2 3.74
    pair_coeff 387 387  0.2 3.15
    pair_coeff 388 388  0.14 2.9
    pair_coeff 389 389  0.066 3.5
    pair_coeff 390 390  0.03 2.5
    pair_coeff 391 391  0.2 3.74
    pair_coeff 392 392  0.2 3.15
    pair_coeff 393 393  0.14 2.9
    pair_coeff 394 394  0.066 3.5
    pair_coeff 395 395  0.03 2.5
    pair_coeff 396 396  0.066 3.5
    pair_coeff 397 397  0.03 2.5
    pair_coeff 398 398  0.07 3.55
    pair_coeff 399 399  0.066 3.5
    pair_coeff 400 400  0.03 2.5
    pair_coeff 401 401  0.07 3.55
    pair_coeff 402 402  0.066 3.5
    pair_coeff 403 403  0.03 2.5
    pair_coeff 404 404  0.07 3.55
    pair_coeff 405 405  0.066 3.5
    pair_coeff 406 406  0.105 3.75
    pair_coeff 407 407  0.21 2.96
    pair_coeff 408 408  0.17 3.0
    pair_coeff 409 409  0.066 3.5
    pair_coeff 410 410  0.015 2.42
    pair_coeff 411 411  0.105 3.75
    pair_coeff 412 412  0.105 3.75
    pair_coeff 413 413  0.07 3.55
    pair_coeff 414 414  0.17 3.0
    pair_coeff 415 415  0.25 3.55
    pair_coeff 416 416  0.17 2.96
    pair_coeff 417 417  0.066 3.5
    pair_coeff 418 418  0.03 2.5
    pair_coeff 419 419  0.17 3.25
    pair_coeff 420 420  0.0 0.0
    pair_coeff 421 421  0.17 3.25
    pair_coeff 422 422  0.0 0.0
    pair_coeff 423 423  0.066 3.5
    pair_coeff 424 424  0.03 2.5
    pair_coeff 425 425  0.066 3.5
    pair_coeff 426 426  0.03 2.5
    pair_coeff 427 427  0.066 3.5
    pair_coeff 428 428  0.03 2.5
    pair_coeff 429 429  0.07 3.55
    pair_coeff 430 430  0.07 3.55
    pair_coeff 431 431  0.066 3.5
    pair_coeff 432 432  0.066 3.5
    pair_coeff 433 433  0.066 3.5
    pair_coeff 434 434  0.25 3.55
    pair_coeff 435 435  0.17 2.96
    pair_coeff 436 436  0.395 3.56
    pair_coeff 437 437  0.395 3.56
    pair_coeff 438 438  0.28 2.93
    pair_coeff 439 439  0.066 3.5
    pair_coeff 440 440  0.066 3.5
    pair_coeff 441 441  0.07 3.55
    pair_coeff 442 442  0.07 3.55
    pair_coeff 443 443  0.07 3.55
    pair_coeff 444 444  0.17 3.25
    pair_coeff 445 445  0.0 0.0
    pair_coeff 446 446  0.066 3.5
    pair_coeff 447 447  0.07 3.55
    pair_coeff 448 448  0.07 3.55
    pair_coeff 449 449  0.07 3.55
    pair_coeff 450 450  0.07 3.55
    pair_coeff 451 451  0.07 3.55
    pair_coeff 452 452  0.17 3.25
    pair_coeff 453 453  0.17 3.25
    pair_coeff 454 454  0.0 0.0
    pair_coeff 455 455  0.07 3.55
    pair_coeff 456 456  0.066 3.5
    pair_coeff 457 457  0.066 3.5
    pair_coeff 458 458  0.076 3.55
    pair_coeff 459 459  0.076 3.55
    pair_coeff 460 460  0.07 3.55
    pair_coeff 461 461  0.17 3.25
    pair_coeff 462 462  0.07 3.55
    pair_coeff 463 463  0.07 3.55
    pair_coeff 464 464  0.07 3.55
    pair_coeff 465 465  0.03 2.42
    pair_coeff 466 466  0.03 2.42
    pair_coeff 467 467  0.03 2.42
    pair_coeff 468 468  0.17 3.25
    pair_coeff 469 469  0.07 3.55
    pair_coeff 470 470  0.03 2.42
    pair_coeff 471 471  0.17 3.25
    pair_coeff 472 472  0.07 3.55
    pair_coeff 473 473  0.07 3.55
    pair_coeff 474 474  0.07 3.55
    pair_coeff 475 475  0.03 2.42
    pair_coeff 476 476  0.03 2.42
    pair_coeff 477 477  0.03 2.42
    pair_coeff 478 478  0.17 3.25
    pair_coeff 479 479  0.07 3.55
    pair_coeff 480 480  0.07 3.55
    pair_coeff 481 481  0.03 2.42
    pair_coeff 482 482  0.03 2.42
    pair_coeff 483 483  0.17 3.25
    pair_coeff 484 484  0.07 3.55
    pair_coeff 485 485  0.07 3.55
    pair_coeff 486 486  0.0 0.0
    pair_coeff 487 487  0.03 2.42
    pair_coeff 488 488  0.03 2.42
    pair_coeff 489 489  0.17 3.25
    pair_coeff 490 490  0.17 3.25
    pair_coeff 491 491  0.07 3.55
    pair_coeff 492 492  0.07 3.55
    pair_coeff 493 493  0.07 3.55
    pair_coeff 494 494  0.0 0.0
    pair_coeff 495 495  0.03 2.42
    pair_coeff 496 496  0.03 2.42
    pair_coeff 497 497  0.03 2.42
    pair_coeff 498 498  0.17 3.25
    pair_coeff 499 499  0.07 3.55
    pair_coeff 500 500  0.17 3.25
    pair_coeff 501 501  0.07 3.55
    pair_coeff 502 502  0.07 3.55
    pair_coeff 503 503  0.0 0.0
    pair_coeff 504 504  0.03 2.42
    pair_coeff 505 505  0.03 2.42
    pair_coeff 506 506  0.03 2.42
    pair_coeff 507 507  0.14 2.9
    pair_coeff 508 508  0.07 3.55
    pair_coeff 509 509  0.076 3.55
    pair_coeff 510 510  0.03 2.42
    pair_coeff 511 511  0.03 2.42
    pair_coeff 512 512  0.14 2.9
    pair_coeff 513 513  0.07 3.55
    pair_coeff 514 514  0.17 3.25
    pair_coeff 515 515  0.07 3.55
    pair_coeff 516 516  0.07 3.55
    pair_coeff 517 517  0.03 2.42
    pair_coeff 518 518  0.03 2.42
    pair_coeff 519 519  0.03 2.42
    pair_coeff 520 520  0.14 2.9
    pair_coeff 521 521  0.17 3.25
    pair_coeff 522 522  0.07 3.55
    pair_coeff 523 523  0.07 3.55
    pair_coeff 524 524  0.07 3.55
    pair_coeff 525 525  0.03 2.42
    pair_coeff 526 526  0.03 2.42
    pair_coeff 527 527  0.03 2.42
    pair_coeff 528 528  0.17 3.25
    pair_coeff 529 529  0.07 3.55
    pair_coeff 530 530  0.07 3.55
    pair_coeff 531 531  0.07 3.55
    pair_coeff 532 532  0.07 3.55
    pair_coeff 533 533  0.07 3.55
    pair_coeff 534 534  0.07 3.55
    pair_coeff 535 535  0.07 3.55
    pair_coeff 536 536  0.07 3.55
    pair_coeff 537 537  0.0 0.0
    pair_coeff 538 538  0.03 2.42
    pair_coeff 539 539  0.03 2.42
    pair_coeff 540 540  0.03 2.42
    pair_coeff 541 541  0.03 2.42
    pair_coeff 542 542  0.03 2.42
    pair_coeff 543 543  0.03 2.42
    pair_coeff 544 544  0.17 3.25
    pair_coeff 545 545  0.07 3.55
    pair_coeff 546 546  0.07 3.55
    pair_coeff 547 547  0.07 3.55
    pair_coeff 548 548  0.07 3.55
    pair_coeff 549 549  0.07 3.55
    pair_coeff 550 550  0.07 3.55
    pair_coeff 551 551  0.07 3.55
    pair_coeff 552 552  0.07 3.55
    pair_coeff 553 553  0.07 3.55
    pair_coeff 554 554  0.03 2.42
    pair_coeff 555 555  0.03 2.42
    pair_coeff 556 556  0.03 2.42
    pair_coeff 557 557  0.03 2.42
    pair_coeff 558 558  0.03 2.42
    pair_coeff 559 559  0.03 2.42
    pair_coeff 560 560  0.03 2.42
    pair_coeff 561 561  0.17 3.25
    pair_coeff 562 562  0.07 3.55
    pair_coeff 563 563  0.17 3.25
    pair_coeff 564 564  0.07 3.55
    pair_coeff 565 565  0.07 3.55
    pair_coeff 566 566  0.07 3.55
    pair_coeff 567 567  0.17 3.25
    pair_coeff 568 568  0.07 3.55
    pair_coeff 569 569  0.17 3.25
    pair_coeff 570 570  0.03 2.42
    pair_coeff 571 571  0.03 2.42
    pair_coeff 572 572  0.03 2.42
    pair_coeff 573 573  0.0 0.0
    pair_coeff 574 574  0.25 3.55
    pair_coeff 575 575  0.07 3.55
    pair_coeff 576 576  0.17 3.25
    pair_coeff 577 577  0.07 3.55
    pair_coeff 578 578  0.07 3.55
    pair_coeff 579 579  0.03 2.42
    pair_coeff 580 580  0.03 2.42
    pair_coeff 581 581  0.03 2.42
    pair_coeff 582 582  0.17 3.25
    pair_coeff 583 583  0.07 3.55
    pair_coeff 584 584  0.03 2.42
    pair_coeff 585 585  0.07 3.55
    pair_coeff 586 586  0.066 3.5
    pair_coeff 587 587  0.17 3.25
    pair_coeff 588 588  0.07 3.55
    pair_coeff 589 589  0.07 3.55
    pair_coeff 590 590  0.07 3.55
    pair_coeff 591 591  0.07 3.55
    pair_coeff 592 592  0.07 3.55
    pair_coeff 593 593  0.07 3.55
    pair_coeff 594 594  0.03 2.42
    pair_coeff 595 595  0.03 2.42
    pair_coeff 596 596  0.03 2.42
    pair_coeff 597 597  0.03 2.42
    pair_coeff 598 598  0.17 3.25
    pair_coeff 599 599  0.07 3.55
    pair_coeff 600 600  0.17 3.25
    pair_coeff 601 601  0.07 3.55
    pair_coeff 602 602  0.07 3.55
    pair_coeff 603 603  0.066 3.5
    pair_coeff 604 604  0.03 2.42
    pair_coeff 605 605  0.03 2.42
    pair_coeff 606 606  0.03 2.42
    pair_coeff 607 607  0.03 2.5
    pair_coeff 608 608  0.066 3.5
    pair_coeff 609 609  0.066 3.5
    pair_coeff 610 610  0.066 3.5
    pair_coeff 611 611  0.066 3.5
    pair_coeff 612 612  0.066 3.5
    pair_coeff 613 613  0.066 3.5
    pair_coeff 614 614  0.066 3.5
    pair_coeff 615 615  0.066 3.5
    pair_coeff 616 616  0.066 3.5
    pair_coeff 617 617  0.066 3.5
    pair_coeff 618 618  0.066 3.5
    pair_coeff 619 619  0.066 3.5
    pair_coeff 620 620  0.066 3.5
    pair_coeff 621 621  0.066 3.5
    pair_coeff 622 622  0.066 3.5
    pair_coeff 623 623  0.25 3.55
    pair_coeff 624 624  0.0 0.0
    pair_coeff 625 625  0.07 3.55
    pair_coeff 626 626  0.105 3.75
    pair_coeff 627 627  0.17 3.25
    pair_coeff 628 628  0.066 3.5
    pair_coeff 629 629  0.066 3.5
    pair_coeff 630 630  0.066 3.5
    pair_coeff 631 631  0.07 3.55
    pair_coeff 632 632  0.07 3.55
    pair_coeff 633 633  0.07 3.55
    pair_coeff 634 634  0.07 3.55
    pair_coeff 635 635  0.07 3.55
    pair_coeff 636 636  0.07 3.55
    pair_coeff 637 637  0.25 3.55
    pair_coeff 638 638  0.054 3.473
    pair_coeff 639 639  0.05 3.3
    pair_coeff 640 640  0.05 3.3
    pair_coeff 641 641  0.076 3.55
    pair_coeff 642 642  0.066 3.5
    pair_coeff 643 643  0.03 2.5
    pair_coeff 644 644  0.06 3.75
    pair_coeff 645 645  0.054 3.473
    pair_coeff 646 646  0.05 3.3
    pair_coeff 647 647  0.05 3.3
    pair_coeff 648 648  0.04 2.95
    pair_coeff 649 649  0.076 3.55
    pair_coeff 650 650  0.3 3.4
    pair_coeff 651 651  0.03 2.42
    pair_coeff 652 652  0.066 3.5
    pair_coeff 653 653  0.066 3.5
    pair_coeff 654 654  0.066 3.5
    pair_coeff 655 655  0.07 3.55
    pair_coeff 656 656  0.03 2.42
    pair_coeff 657 657  0.07 3.55
    pair_coeff 658 658  0.03 2.42
    pair_coeff 659 659  0.07 3.55
    pair_coeff 660 660  0.061 2.85
    pair_coeff 661 661  0.07 3.55
    pair_coeff 662 662  0.061 2.85
    pair_coeff 663 663  0.47 3.47
    pair_coeff 664 664  0.118 3.905
    pair_coeff 665 665  0.07 3.55
    pair_coeff 666 666  0.062 3.25
    pair_coeff 667 667  0.061 2.94
    pair_coeff 668 668  0.07 3.55
    pair_coeff 669 669  0.061 2.85
    pair_coeff 670 670  0.07 3.55
    pair_coeff 671 671  0.47 3.47
    pair_coeff 672 672  0.07 3.55
    pair_coeff 673 673  0.6 3.75
    pair_coeff 674 674  0.066 3.5
    pair_coeff 675 675  0.25 3.55
    pair_coeff 676 676  0.07 3.55
    pair_coeff 677 677  0.07 3.55
    pair_coeff 678 678  0.07 3.55
    pair_coeff 679 679  0.07 3.55
    pair_coeff 680 680  0.07 3.55
    pair_coeff 681 681  0.03 2.42
    pair_coeff 682 682  0.03 2.42
    pair_coeff 683 683  0.05 3.55
    pair_coeff 684 684  0.17 3.25
    pair_coeff 685 685  0.0 0.0
    pair_coeff 686 686  0.0 0.0
    pair_coeff 687 687  0.03 2.42
    pair_coeff 688 688  0.066 3.5
    pair_coeff 689 689  0.066 3.5
    pair_coeff 690 690  0.17 3.25
    pair_coeff 691 691  0.17 3.25
    pair_coeff 692 692  0.17 3.25
    pair_coeff 693 693  0.05 3.55
    pair_coeff 694 694  0.17 3.2
    pair_coeff 695 695  0.066 3.3
    pair_coeff 696 696  0.066 3.3
    pair_coeff 697 697  0.066 3.3
    pair_coeff 698 698  0.066 3.3
    pair_coeff 699 699  0.066 3.3
    pair_coeff 700 700  0.015 2.5
    pair_coeff 701 701  0.12 3.25
    pair_coeff 702 702  0.17 2.96
    pair_coeff 703 703  0.066 3.5
    pair_coeff 704 704  0.015 2.5
    pair_coeff 705 705  0.066 3.5
    pair_coeff 706 706  0.066 3.5
    pair_coeff 707 707  0.066 3.5
    pair_coeff 708 708  0.12 3.25
    pair_coeff 709 709  0.07 3.55
    pair_coeff 710 710  0.066 3.3
    pair_coeff 711 711  0.17 3.25
    pair_coeff 712 712  0.21 2.96
    pair_coeff 713 713  0.105 3.75
    pair_coeff 714 714  0.17 3.0
    pair_coeff 715 715  0.066 3.5
    pair_coeff 716 716  0.066 3.5
    pair_coeff 717 717  0.066 3.5
    pair_coeff 718 718  0.015 2.42
    pair_coeff 719 719  0.015 2.42
    pair_coeff 720 720  0.015 2.42
    pair_coeff 721 721  0.14 2.9
    pair_coeff 722 722  0.2 3.74
    pair_coeff 723 723  0.066 3.5
    pair_coeff 724 724  0.066 3.5
    pair_coeff 725 725  0.03 2.5
    pair_coeff 726 726  0.2 3.74
    pair_coeff 727 727  0.061 3.1181
    pair_coeff 728 728  0.17 3.15
    pair_coeff 729 729  0.21 2.86
    pair_coeff 730 730  0.17 3.3
    pair_coeff 731 731  0.17 3.3
    pair_coeff 732 732  0.17 3.3
    pair_coeff 733 733  0.066 3.5
    pair_coeff 734 734  0.066 3.5
    pair_coeff 735 735  0.066 3.5
    pair_coeff 736 736  0.066 3.5
    pair_coeff 737 737  0.066 3.5
    pair_coeff 738 738  0.066 3.5
    pair_coeff 739 739  0.0 0.0
    pair_coeff 740 740  0.0 0.0
    pair_coeff 741 741  0.015 2.5
    pair_coeff 742 742  0.066 3.5
    pair_coeff 743 743  0.066 3.5
    pair_coeff 744 744  0.066 3.5
    pair_coeff 745 745  0.066 3.5
    pair_coeff 746 746  0.07 3.55
    pair_coeff 747 747  0.07 3.55
    pair_coeff 748 748  0.07 3.55
    pair_coeff 749 749  0.066 3.5
    pair_coeff 750 750  0.066 3.5
    pair_coeff 751 751  0.066 3.5
    pair_coeff 752 752  0.066 3.5
    pair_coeff 753 753  0.066 3.5
    pair_coeff 754 754  0.066 3.5
    pair_coeff 755 755  0.086 3.3
    pair_coeff 756 756  0.015 2.42
    pair_coeff 757 757  0.21 3.3
    pair_coeff 758 758  0.135 3.3
    pair_coeff 759 759  0.1 3.3
    pair_coeff 760 760  0.015 2.5
    pair_coeff 761 761  0.066 3.5
    pair_coeff 762 762  0.066 3.5
    pair_coeff 763 763  0.066 3.5
    pair_coeff 764 764  0.17 3.12
    pair_coeff 765 765  0.0 0.0
    pair_coeff 766 766  0.17 3.25
    pair_coeff 767 767  0.17 3.25
    pair_coeff 768 768  0.17 3.25
    pair_coeff 769 769  0.21 3.3
    pair_coeff 770 770  0.17 3.25
    pair_coeff 771 771  0.0 0.0
    pair_coeff 772 772  0.066 3.5
    pair_coeff 773 773  0.066 3.5
    pair_coeff 774 774  0.066 3.5
    pair_coeff 775 775  0.066 3.5
    pair_coeff 776 776  0.07 3.55
    pair_coeff 777 777  0.076 3.55
    pair_coeff 778 778  0.07 3.55
    pair_coeff 779 779  0.07 3.55
    pair_coeff 780 780  0.03 2.5
    pair_coeff 781 781  0.066 3.5
    pair_coeff 782 782  0.105 3.75
    pair_coeff 783 783  0.17 3.25
    pair_coeff 784 784  0.21 2.96
    pair_coeff 785 785  0.0 0.0
    pair_coeff 786 786  0.061 2.94
    pair_coeff 787 787  0.066 3.5
    pair_coeff 788 788  0.03 2.5
    pair_coeff 789 789  0.066 3.5
    pair_coeff 790 790  0.066 3.5
    pair_coeff 791 791  0.066 3.5
    pair_coeff 792 792  0.066 3.5
    pair_coeff 793 793  0.066 3.5
    pair_coeff 794 794  0.097 3.5
    pair_coeff 795 795  0.053 2.95
    pair_coeff 796 796  0.062 3.25
    pair_coeff 797 797  0.03 2.5
    pair_coeff 798 798  0.066 3.5
    pair_coeff 799 799  0.066 3.5
    pair_coeff 800 800  0.3 3.4
    pair_coeff 801 801  0.066 3.5
    pair_coeff 802 802  0.03 2.5
    pair_coeff 803 803  0.066 3.5
    pair_coeff 804 804  0.066 3.5
    pair_coeff 805 805  0.47 3.47
    pair_coeff 806 806  0.066 3.5
    pair_coeff 807 807  0.03 2.5
    pair_coeff 808 808  0.066 3.5
    pair_coeff 809 809  0.066 3.5
    pair_coeff 810 810  0.061 2.94
    pair_coeff 811 811  0.3 3.4
    pair_coeff 812 812  0.47 3.47
    pair_coeff 813 813  0.07 3.55
    pair_coeff 814 814  0.14 2.9
    pair_coeff 815 815  0.066 3.5
    pair_coeff 816 816  0.06 2.9
    pair_coeff 817 817  0.17 3.25
    pair_coeff 818 818  0.07 3.55
    pair_coeff 819 819  0.066 3.5
    pair_coeff 820 820  0.105 3.75
    pair_coeff 821 821  0.105 3.75
    pair_coeff 822 822  0.21 2.96
    pair_coeff 823 823  0.17 3.25
    pair_coeff 824 824  0.0 0.0
    pair_coeff 825 825  0.17 3.12
    pair_coeff 826 826  0.0 0.0
    pair_coeff 827 827  0.066 3.5
    pair_coeff 828 828  0.066 3.5
    pair_coeff 829 829  0.07 3.55
    pair_coeff 830 830  0.07 3.55
    pair_coeff 831 831  0.07 3.55
    pair_coeff 832 832  0.07 3.55
    pair_coeff 833 833  0.07 3.55
    pair_coeff 834 834  0.0125 1.96
    pair_coeff 835 835  0.066 3.5
    pair_coeff 836 836  0.066 3.5
    pair_coeff 837 837  0.066 3.5
    pair_coeff 838 838  0.6 3.75
    pair_coeff 839 839  0.03 2.5
    pair_coeff 840 840  0.17 3.25
    pair_coeff 841 841  0.07 3.55
    pair_coeff 842 842  0.07 3.55
    pair_coeff 843 843  0.17 3.25
    pair_coeff 844 844  0.07 3.55
    pair_coeff 845 845  0.105 3.75
    pair_coeff 846 846  0.21 2.96
    pair_coeff 847 847  0.17 3.25
    pair_coeff 848 848  0.066 3.5
    pair_coeff 849 849  0.066 3.5
    pair_coeff 850 850  0.066 3.5
    pair_coeff 851 851  0.066 3.5
    pair_coeff 852 852  0.015 2.42
    pair_coeff 853 853  0.105 3.75
    pair_coeff 854 854  0.21 2.96
    pair_coeff 855 855  0.015 2.42
    pair_coeff 856 856  0.066 3.5
    pair_coeff 857 857  0.066 3.5
    pair_coeff 858 858  0.066 3.5
    pair_coeff 859 859  0.066 3.5
    pair_coeff 860 860  0.066 3.5
    pair_coeff 861 861  0.066 3.5
    pair_coeff 862 862  0.066 3.5
    pair_coeff 863 863  0.066 3.5
    pair_coeff 864 864  0.066 3.5
    pair_coeff 865 865  0.066 3.5
    pair_coeff 866 866  0.1 4.0
    pair_coeff 867 867  0.1 4.0
    pair_coeff 868 868  0.1 4.0
    pair_coeff 869 869  0.1 4.0
    pair_coeff 870 870  0.03 2.5
    pair_coeff 871 871  0.066 3.5
    pair_coeff 872 872  0.066 3.5
    pair_coeff 873 873  0.066 3.5
    pair_coeff 874 874  0.066 3.5
    pair_coeff 875 875  0.72 3.08
    pair_coeff 876 876  0.11779 4.18
    pair_coeff 877 877  0.09 4.51
    pair_coeff 878 878  0.07 5.15
    pair_coeff 879 879  0.018279 2.7
    pair_coeff 880 880  0.002772 3.35
    pair_coeff 881 881  0.000328 4.06
    pair_coeff 882 882  0.000171 4.32
    pair_coeff 883 883  8.1e-05 4.82
    pair_coeff 884 884  0.875044 2.91
    pair_coeff 885 885  0.449657 3.47
    pair_coeff 886 886  0.118226 3.82
    pair_coeff 887 887  0.047096 4.18
    pair_coeff 888 888  0.066 3.5
    pair_coeff 889 889  0.066 3.5
    pair_coeff 890 890  0.066 3.5
    pair_coeff 891 891  0.066 3.5
    pair_coeff 892 892  0.03 2.5
    pair_coeff 893 893  0.17 3.25
    pair_coeff 894 894  0.07 3.55
    pair_coeff 895 895  0.17 3.25
    pair_coeff 896 896  0.07 3.55
    pair_coeff 897 897  0.076 3.55
    pair_coeff 898 898  0.076 3.55
    pair_coeff 899 899  0.03 2.42
    pair_coeff 900 900  0.086 3.3
    pair_coeff 901 901  0.086 3.3
    pair_coeff 902 902  0.086 3.3
    pair_coeff 903 903  0.086 3.3
    pair_coeff 904 904  0.086 3.3
    pair_coeff 905 905  0.21 2.96
    pair_coeff 906 906  0.066 3.5
    bond_coeff 1  367.0 1.38
    bond_coeff 2  420.0 1.357
    bond_coeff 3  367.0 1.36
    bond_coeff 4  450.0 1.279
    bond_coeff 5  300.0 0.3
    bond_coeff 6  420.0 1.34
    bond_coeff 7  420.0 1.354
    bond_coeff 8  420.0 1.354
    bond_coeff 9  420.0 1.354
    bond_coeff 10  420.0 1.354
    bond_coeff 11  420.0 1.354
    bond_coeff 12  420.0 1.354
    bond_coeff 13  461.0 1.57
    bond_coeff 14  260.0 1.526
    bond_coeff 15  317.0 1.522
    bond_coeff 16  386.0 1.425
    bond_coeff 17  260.0 1.526
    bond_coeff 18  260.0 1.526
    bond_coeff 19  317.0 1.5
    bond_coeff 20  317.0 1.51
    bond_coeff 21  260.0 1.526
    bond_coeff 22  317.0 1.5
    bond_coeff 23  222.0 1.81
    bond_coeff 24  222.0 1.81
    bond_coeff 25  320.0 1.425
    bond_coeff 26  337.0 1.449
    bond_coeff 27  382.0 1.448
    bond_coeff 28  317.0 1.51
    bond_coeff 29  260.0 1.526
    bond_coeff 30  367.0 1.471
    bond_coeff 31  337.0 1.463
    bond_coeff 32  317.0 1.495
    bond_coeff 33  350.0 1.51
    bond_coeff 34  570.0 1.229
    bond_coeff 35  450.0 1.364
    bond_coeff 36  317.0 1.522
    bond_coeff 37  317.0 1.522
    bond_coeff 38  469.0 1.4
    bond_coeff 39  317.0 1.522
    bond_coeff 40  400.0 1.444
    bond_coeff 41  214.0 1.327
    bond_coeff 42  300.0 1.79
    bond_coeff 43  490.0 1.335
    bond_coeff 44  317.0 1.522
    bond_coeff 45  340.0 1.09
    bond_coeff 46  410.0 1.444
    bond_coeff 47  400.0 1.49
    bond_coeff 48  385.0 1.46
    bond_coeff 49  656.0 1.25
    bond_coeff 50  457.0 1.358
    bond_coeff 51  418.0 1.388
    bond_coeff 52  447.0 1.419
    bond_coeff 53  300.0 1.98
    bond_coeff 54  400.0 1.49
    bond_coeff 55  385.0 1.46
    bond_coeff 56  424.0 1.383
    bond_coeff 57  490.0 1.335
    bond_coeff 58  553.0 0.3
    bond_coeff 59  525.0 1.48
    bond_coeff 60  570.0 1.229
    bond_coeff 61  700.0 1.171
    bond_coeff 62  386.0 1.425
    bond_coeff 63  553.0 0.945
    bond_coeff 64  386.0 1.425
    bond_coeff 65  320.0 1.41
    bond_coeff 66  250.0 1.47
    bond_coeff 67  400.0 1.38
    bond_coeff 68  340.0 0.3
    bond_coeff 69  320.0 1.45
    bond_coeff 70  450.0 1.37
    bond_coeff 71  450.0 1.364
    bond_coeff 72  320.0 1.38
    bond_coeff 73  230.0 1.61
    bond_coeff 74  450.0 1.67
    bond_coeff 75  94.0 1.8
    bond_coeff 76  374.0 1.64
    bond_coeff 77  260.0 1.526
    bond_coeff 78  260.0 1.526
    bond_coeff 79  317.0 1.5
    bond_coeff 80  260.0 1.526
    bond_coeff 81  317.0 1.5
    bond_coeff 82  222.0 1.81
    bond_coeff 83  222.0 1.81
    bond_coeff 84  320.0 1.425
    bond_coeff 85  337.0 1.449
    bond_coeff 86  382.0 1.448
    bond_coeff 87  317.0 1.51
    bond_coeff 88  260.0 1.526
    bond_coeff 89  367.0 1.471
    bond_coeff 90  337.0 1.463
    bond_coeff 91  222.0 1.81
    bond_coeff 92  337.0 1.475
    bond_coeff 93  553.0 0.945
    bond_coeff 94  340.0 0.1
    bond_coeff 95  530.0 1.34
    bond_coeff 96  530.0 1.34
    bond_coeff 97  530.0 1.34
    bond_coeff 98  260.0 1.526
    bond_coeff 99  317.0 1.5
    bond_coeff 100  317.0 1.5
    bond_coeff 101  320.0 1.425
    bond_coeff 102  337.0 1.449
    bond_coeff 103  382.0 1.448
    bond_coeff 104  337.0 1.475
    bond_coeff 105  530.0 1.34
    bond_coeff 106  317.0 1.5
    bond_coeff 107  530.0 1.34
    bond_coeff 108  222.0 1.76
    bond_coeff 109  469.0 1.4
    bond_coeff 110  469.0 1.4
    bond_coeff 111  469.0 1.4
    bond_coeff 112  469.0 1.4
    bond_coeff 113  268.0 1.529
    bond_coeff 114  317.0 1.5
    bond_coeff 115  222.0 1.81
    bond_coeff 116  222.0 1.81
    bond_coeff 117  390.0 1.43
    bond_coeff 118  390.0 1.47
    bond_coeff 119  320.0 1.41
    bond_coeff 120  245.0 1.781
    bond_coeff 121  340.0 1.79
    bond_coeff 122  337.0 1.449
    bond_coeff 123  340.0 0.3
    bond_coeff 124  382.0 1.448
    bond_coeff 125  340.0 1.09
    bond_coeff 126  317.0 1.51
    bond_coeff 127  317.0 1.51
    bond_coeff 128  317.0 1.51
    bond_coeff 129  268.0 1.529
    bond_coeff 130  367.0 1.471
    bond_coeff 131  337.0 1.463
    bond_coeff 132  337.0 1.449
    bond_coeff 133  337.0 1.475
    bond_coeff 134  317.0 1.51
    bond_coeff 135  212.0 1.843
    bond_coeff 136  245.0 1.945
    bond_coeff 137  200.0 2.19
    bond_coeff 138  340.0 1.77
    bond_coeff 139  317.0 1.495
    bond_coeff 140  317.0 1.504
    bond_coeff 141  317.0 1.504
    bond_coeff 142  317.0 1.504
    bond_coeff 143  317.0 1.495
    bond_coeff 144  337.0 1.449
    bond_coeff 145  280.0 1.51
    bond_coeff 146  532.8 1.46
    bond_coeff 147  382.0 1.448
    bond_coeff 148  375.0 1.49
    bond_coeff 149  212.0 1.82
    bond_coeff 150  337.0 1.475
    bond_coeff 151  337.0 1.449
    bond_coeff 152  187.0 1.86
    bond_coeff 153  317.0 1.51
    bond_coeff 154  530.0 1.34
    bond_coeff 155  274.0 1.336
    bond_coeff 156  250.0 1.74
    bond_coeff 157  166.0 2.038
    bond_coeff 158  300.0 1.685
    bond_coeff 159  250.0 1.73
    bond_coeff 160  340.0 0.5
    bond_coeff 161  250.0 1.76
    bond_coeff 162  250.0 1.76
    bond_coeff 163  250.0 1.73
    bond_coeff 164  250.0 1.76
    bond_coeff 165  250.0 1.74
    bond_coeff 166  222.0 1.81
    bond_coeff 167  144.0 2.15
    bond_coeff 168  340.0 0.1
    bond_coeff 169  550.0 1.12
    bond_coeff 170  650.0 1.157
    bond_coeff 171  400.0 1.41
    bond_coeff 172  550.0 1.24
    bond_coeff 173  1150.0 1.21
    bond_coeff 174  330.0 1.637
    bond_coeff 175  420.0 1.08
    bond_coeff 176  400.0 1.426
    bond_coeff 177  400.0 1.451
    bond_coeff 178  400.0 1.426
    bond_coeff 179  330.0 1.784
    bond_coeff 180  400.0 1.451
    bond_coeff 181  400.0 1.451
    bond_coeff 182  250.0 1.47
    bond_coeff 183  200.0 1.69
    bond_coeff 184  320.0 1.45
    bond_coeff 185  340.0 0.3
    bond_coeff 186  320.0 1.45
    bond_coeff 187  450.0 1.37
    bond_coeff 188  450.0 1.364
    bond_coeff 189  320.0 1.38
    bond_coeff 190  340.0 1.36
    bond_coeff 191  462.0 1.399
    bond_coeff 192  230.0 1.61
    bond_coeff 193  462.0 1.357
    bond_coeff 194  340.0 1.36
    bond_coeff 195  374.0 1.64
    bond_coeff 196  300.0 0.3
    bond_coeff 197  300.0 1.725
    bond_coeff 198  300.0 1.725
    bond_coeff 199  300.0 1.725
    bond_coeff 200  300.0 1.725
    bond_coeff 201  300.0 1.725
    bond_coeff 202  300.0 1.725
    bond_coeff 203  300.0 1.725
    bond_coeff 204  223.0 2.02
    bond_coeff 205  700.0 1.53
    bond_coeff 206  340.0 0.5
    bond_coeff 207  340.0 0.3
    bond_coeff 208  700.0 1.44
    bond_coeff 209  367.0 0.3
    bond_coeff 210  434.0 1.01
    bond_coeff 211  427.0 1.381
    bond_coeff 212  427.0 1.381
    bond_coeff 213  434.0 1.67
    bond_coeff 214  427.0 1.381
    bond_coeff 215  427.0 1.381
    bond_coeff 216  337.0 1.449
    bond_coeff 217  500.0 1.27
    bond_coeff 218  40.0 2.05
    bond_coeff 219  340.0 0.3
    bond_coeff 220  340.0 0.3
    bond_coeff 221  340.0 0.1
    bond_coeff 222  340.0 0.3
    bond_coeff 223  340.0 0.3
    bond_coeff 224  367.0 0.3
    bond_coeff 225  340.0 0.3
    bond_coeff 226  340.0 0.3
    bond_coeff 227  367.0 0.3
    bond_coeff 228  367.0 0.3
    bond_coeff 229  300.0 0.3
    bond_coeff 230  340.0 0.1
    bond_coeff 231  600.0 0.9572
    bond_coeff 232  900.0 0.15
    bond_coeff 233  40.0 2.05
    bond_coeff 234  529.6 0.9572
    bond_coeff 235  600.0 0.9572
    bond_coeff 236  900.0 0.175
    bond_coeff 237  600.0 0.9572
    bond_coeff 238  900.0 0.7
    bond_coeff 239  600.0 1.0
    bond_coeff 240  350.0 1.445
    bond_coeff 241  434.0 1.01
    bond_coeff 242  481.0 1.34
    bond_coeff 243  340.0 1.77
    bond_coeff 244  382.0 1.448
    bond_coeff 245  266.0 1.74
    bond_coeff 246  434.0 1.01
    bond_coeff 247  434.0 1.01
    bond_coeff 248  434.0 1.01
    bond_coeff 249  434.0 1.01
    bond_coeff 250  434.0 1.01
    bond_coeff 251  434.0 1.01
    bond_coeff 252  166.0 1.48
    bond_coeff 253  340.0 1.08
    bond_coeff 254  340.0 1.08
    bond_coeff 255  340.0 1.09
    bond_coeff 256  340.0 1.08
    bond_coeff 257  340.0 1.088
    bond_coeff 258  532.8 1.084
    bond_coeff 259  166.0 1.48
    bond_coeff 260  340.0 1.08
    bond_coeff 261  549.0 1.34
    bond_coeff 262  427.0 1.433
    bond_coeff 263  549.0 1.34
    bond_coeff 264  448.0 1.365
    bond_coeff 265  367.0 1.08
    bond_coeff 266  300.0 1.9
    bond_coeff 267  250.0 2.08
    bond_coeff 268  385.0 1.46
    bond_coeff 269  317.0 1.51
    bond_coeff 270  448.0 1.365
    bond_coeff 271  700.0 1.305
    bond_coeff 272  469.0 1.4
    bond_coeff 273  367.0 1.08
    bond_coeff 274  427.0 1.433
    bond_coeff 275  400.0 1.45
    bond_coeff 276  481.0 1.34
    bond_coeff 277  483.0 1.339
    bond_coeff 278  427.0 1.381
    bond_coeff 279  469.0 1.404
    bond_coeff 280  414.0 1.391
    bond_coeff 281  220.0 1.78
    bond_coeff 282  300.0 1.87
    bond_coeff 283  250.0 2.08
    bond_coeff 284  340.0 1.77
    bond_coeff 285  469.0 1.4
    bond_coeff 286  546.0 1.367
    bond_coeff 287  469.0 1.4
    bond_coeff 288  469.0 1.421
    bond_coeff 289  317.0 1.49
    bond_coeff 290  382.0 1.385
    bond_coeff 291  400.0 1.46
    bond_coeff 292  427.0 1.433
    bond_coeff 293  367.0 1.08
    bond_coeff 294  340.0 1.08
    bond_coeff 295  367.0 1.08
    bond_coeff 296  367.0 1.08
    bond_coeff 297  367.0 1.08
    bond_coeff 298  367.0 1.08
    bond_coeff 299  367.0 1.08
    bond_coeff 300  367.0 1.08
    bond_coeff 301  385.0 1.46
    bond_coeff 302  457.0 1.29
    bond_coeff 303  549.0 1.365
    bond_coeff 304  385.0 1.46
    bond_coeff 305  337.0 1.475
    bond_coeff 306  525.0 1.48
    bond_coeff 307  434.0 1.01
    bond_coeff 308  434.0 1.01
    bond_coeff 309  481.0 1.34
    bond_coeff 310  481.0 1.34
    bond_coeff 311  500.0 1.32
    bond_coeff 312  502.0 1.324
    bond_coeff 313  461.0 1.354
    bond_coeff 314  461.0 1.354
    bond_coeff 315  483.0 1.339
    bond_coeff 316  550.0 1.21
    bond_coeff 317  457.0 1.29
    bond_coeff 318  436.0 1.374
    bond_coeff 319  400.0 1.349
    bond_coeff 320  440.0 1.371
    bond_coeff 321  428.0 1.38
    bond_coeff 322  477.0 1.343
    bond_coeff 323  427.0 1.381
    bond_coeff 324  427.0 1.381
    bond_coeff 325  385.0 1.44
    bond_coeff 326  367.0 1.08
    bond_coeff 327  367.0 1.08
    bond_coeff 328  367.0 1.08
    bond_coeff 329  520.0 1.37
    bond_coeff 330  414.0 1.391
    bond_coeff 331  388.0 1.459
    bond_coeff 332  447.0 1.419
    bond_coeff 333  469.0 1.424
    bond_coeff 334  436.0 1.374
    bond_coeff 335  400.0 1.28
    bond_coeff 336  529.0 1.304
    bond_coeff 337  488.0 1.335
    bond_coeff 338  410.0 1.394
    bond_coeff 339  410.0 1.394
    bond_coeff 340  410.0 1.32
    bond_coeff 341  367.0 1.08
    bond_coeff 342  440.0 1.371
    bond_coeff 343  367.0 1.08
    bond_coeff 344  108.0 2.25
    bond_coeff 345  300.0 1.87
    bond_coeff 346  300.0 1.87
    bond_coeff 347  300.0 1.87
    bond_coeff 348  300.0 1.87
    bond_coeff 349  300.0 1.87
    bond_coeff 350  151.0 2.19
    bond_coeff 351  250.0 2.08
    bond_coeff 352  250.0 2.08
    bond_coeff 353  250.0 2.08
    bond_coeff 354  250.0 2.08
    bond_coeff 355  250.0 2.08
    bond_coeff 356  108.0 2.44
    bond_coeff 357  500.0 1.8
    bond_coeff 358  546.0 1.352
    bond_coeff 359  385.0 1.46
    bond_coeff 360  520.0 1.37
    bond_coeff 361  520.0 1.37
    bond_coeff 362  385.0 1.46
    bond_coeff 363  512.0 1.375
    bond_coeff 364  385.0 1.46
    bond_coeff 365  546.0 1.367
    bond_coeff 366  520.0 1.37
    bond_coeff 367  520.0 1.37
    bond_coeff 368  385.0 1.46
    bond_coeff 369  385.0 1.46
    bond_coeff 370  385.0 1.46
    bond_coeff 371  469.0 1.424
    bond_coeff 372  469.0 1.424
    bond_coeff 373  490.0 1.335
    bond_coeff 374  317.0 1.522
    bond_coeff 375  337.0 1.449
    bond_coeff 376  260.0 1.52
    bond_coeff 377  550.0 1.225
    bond_coeff 378  94.0 2.32
    bond_coeff 379  549.0 1.345
    angle_coeff 1  33.0 109.47
    angle_coeff 2  50.0 109.5
    angle_coeff 3  63.0 112.4
    angle_coeff 4  63.0 112.4
    angle_coeff 5  80.0 109.5
    angle_coeff 6  63.0 112.4
    angle_coeff 7  63.0 112.4
    angle_coeff 8  80.0 109.5
    angle_coeff 9  63.0 112.4
    angle_coeff 10  63.0 112.4
    angle_coeff 11  63.0 112.4
    angle_coeff 12  63.0 112.4
    angle_coeff 13  80.0 109.5
    angle_coeff 14  63.0 114.0
    angle_coeff 15  63.0 112.4
    angle_coeff 16  50.0 108.6
    angle_coeff 17  50.0 114.7
    angle_coeff 18  50.0 114.7
    angle_coeff 19  80.0 109.5
    angle_coeff 20  80.0 109.5
    angle_coeff 21  80.0 109.5
    angle_coeff 22  80.0 110.3
    angle_coeff 23  80.0 111.2
    angle_coeff 24  56.2 109.47
    angle_coeff 25  56.2 109.47
    angle_coeff 26  56.2 109.47
    angle_coeff 27  56.2 109.47
    angle_coeff 28  80.0 111.2
    angle_coeff 29  63.0 112.4
    angle_coeff 30  63.0 114.0
    angle_coeff 31  63.0 112.4
    angle_coeff 32  63.0 112.4
    angle_coeff 33  80.0 111.2
    angle_coeff 34  80.0 111.2
    angle_coeff 35  63.0 115.6
    angle_coeff 36  80.0 120.4
    angle_coeff 37  80.0 121.0
    angle_coeff 38  80.0 121.4
    angle_coeff 39  80.0 126.0
    angle_coeff 40  80.0 121.0
    angle_coeff 41  80.0 120.4
    angle_coeff 42  70.0 115.0
    angle_coeff 43  80.0 120.4
    angle_coeff 44  70.0 120.0
    angle_coeff 45  85.0 120.0
    angle_coeff 46  70.0 108.0
    angle_coeff 47  70.0 116.0
    angle_coeff 48  80.0 111.0
    angle_coeff 49  80.0 117.2
    angle_coeff 50  80.0 120.4
    angle_coeff 51  81.0 111.4
    angle_coeff 52  81.0 111.4
    angle_coeff 53  83.0 123.4
    angle_coeff 54  75.0 109.0
    angle_coeff 55  75.0 119.0
    angle_coeff 56  70.0 114.2
    angle_coeff 57  70.0 116.6
    angle_coeff 58  70.0 116.6
    angle_coeff 59  70.0 116.6
    angle_coeff 60  70.0 116.6
    angle_coeff 61  70.0 116.6
    angle_coeff 62  80.0 122.9
    angle_coeff 63  81.0 111.4
    angle_coeff 64  70.0 116.0
    angle_coeff 65  80.0 120.4
    angle_coeff 66  35.0 115.0
    angle_coeff 67  35.0 115.0
    angle_coeff 68  35.0 123.0
    angle_coeff 69  40.0 114.0
    angle_coeff 70  40.0 115.0
    angle_coeff 71  40.0 115.0
    angle_coeff 72  70.0 115.5
    angle_coeff 73  80.0 125.3
    angle_coeff 74  35.0 115.0
    angle_coeff 75  70.0 115.5
    angle_coeff 76  70.0 116.0
    angle_coeff 77  70.0 120.0
    angle_coeff 78  80.0 120.4
    angle_coeff 79  81.0 111.4
    angle_coeff 80  85.0 120.0
    angle_coeff 81  70.0 116.0
    angle_coeff 82  80.0 116.0
    angle_coeff 83  80.0 124.0
    angle_coeff 84  65.0 117.0
    angle_coeff 85  70.0 117.0
    angle_coeff 86  70.0 117.0
    angle_coeff 87  70.0 117.0
    angle_coeff 88  70.0 117.0
    angle_coeff 89  80.0 126.0
    angle_coeff 90  80.0 126.0
    angle_coeff 91  35.0 122.0
    angle_coeff 92  80.0 122.5
    angle_coeff 93  70.0 114.1
    angle_coeff 94  70.0 118.6
    angle_coeff 95  70.0 118.6
    angle_coeff 96  80.0 120.6
    angle_coeff 97  70.0 111.3
    angle_coeff 98  70.0 111.3
    angle_coeff 99  80.0 128.8
    angle_coeff 100  75.0 109.0
    angle_coeff 101  75.0 119.0
    angle_coeff 102  70.0 116.0
    angle_coeff 103  80.0 120.4
    angle_coeff 104  80.0 128.2
    angle_coeff 105  70.0 115.4
    angle_coeff 106  70.0 118.6
    angle_coeff 107  80.0 120.9
    angle_coeff 108  70.0 116.6
    angle_coeff 109  80.0 122.9
    angle_coeff 110  10.0 117.0
    angle_coeff 111  35.0 113.0
    angle_coeff 112  35.0 113.0
    angle_coeff 113  55.0 108.5
    angle_coeff 114  55.0 108.5
    angle_coeff 115  55.0 108.5
    angle_coeff 116  55.0 108.5
    angle_coeff 117  49.0 105.4
    angle_coeff 118  5.0 109.47
    angle_coeff 119  10.0 109.47
    angle_coeff 120  10.0 109.47
    angle_coeff 121  35.0 109.0
    angle_coeff 122  10.0 109.47
    angle_coeff 123  35.0 113.0
    angle_coeff 124  55.0 108.5
    angle_coeff 125  55.0 108.5
    angle_coeff 126  100.0 120.5
    angle_coeff 127  74.0 110.0
    angle_coeff 128  100.0 126.0
    angle_coeff 129  10.0 109.47
    angle_coeff 130  33.0 109.47
    angle_coeff 131  63.0 112.4
    angle_coeff 132  63.0 111.1
    angle_coeff 133  80.0 109.5
    angle_coeff 134  63.0 111.1
    angle_coeff 135  63.0 111.5
    angle_coeff 136  63.0 112.4
    angle_coeff 137  80.0 109.5
    angle_coeff 138  63.0 111.1
    angle_coeff 139  63.0 111.5
    angle_coeff 140  63.0 111.5
    angle_coeff 141  63.0 111.5
    angle_coeff 142  80.0 109.5
    angle_coeff 143  80.0 109.5
    angle_coeff 144  80.0 109.5
    angle_coeff 145  80.0 109.5
    angle_coeff 146  63.0 110.1
    angle_coeff 147  80.0 109.5
    angle_coeff 148  80.0 109.7
    angle_coeff 149  80.0 109.7
    angle_coeff 150  56.2 109.47
    angle_coeff 151  56.2 109.47
    angle_coeff 152  56.2 109.47
    angle_coeff 153  56.2 109.47
    angle_coeff 154  80.0 109.7
    angle_coeff 155  63.0 112.4
    angle_coeff 156  80.0 109.5
    angle_coeff 157  80.0 109.5
    angle_coeff 158  80.0 109.5
    angle_coeff 159  80.0 109.5
    angle_coeff 160  70.0 124.0
    angle_coeff 161  70.0 124.0
    angle_coeff 162  70.0 124.0
    angle_coeff 163  70.0 118.0
    angle_coeff 164  70.0 118.0
    angle_coeff 165  70.0 118.0
    angle_coeff 166  70.0 124.0
    angle_coeff 167  70.0 124.0
    angle_coeff 168  70.0 124.0
    angle_coeff 169  70.0 118.0
    angle_coeff 170  70.0 118.0
    angle_coeff 171  70.0 118.0
    angle_coeff 172  70.0 118.0
    angle_coeff 173  70.0 118.0
    angle_coeff 174  70.0 118.0
    angle_coeff 175  70.0 118.0
    angle_coeff 176  70.0 124.0
    angle_coeff 177  70.0 124.0
    angle_coeff 178  70.0 124.0
    angle_coeff 179  70.0 124.0
    angle_coeff 180  70.0 118.0
    angle_coeff 181  70.0 118.0
    angle_coeff 182  70.0 118.0
    angle_coeff 183  70.0 120.0
    angle_coeff 184  85.0 120.0
    angle_coeff 185  85.0 120.0
    angle_coeff 186  85.0 120.0
    angle_coeff 187  85.0 120.0
    angle_coeff 188  85.0 120.0
    angle_coeff 189  77.0 109.1
    angle_coeff 190  40.0 109.5
    angle_coeff 191  50.0 109.5
    angle_coeff 192  63.0 111.1
    angle_coeff 193  63.0 111.1
    angle_coeff 194  40.0 109.5
    angle_coeff 195  40.0 109.5
    angle_coeff 196  63.0 109.5
    angle_coeff 197  50.0 109.5
    angle_coeff 198  50.0 109.5
    angle_coeff 199  58.35 112.7
    angle_coeff 200  63.0 111.1
    angle_coeff 201  50.0 108.6
    angle_coeff 202  50.0 114.7
    angle_coeff 203  58.35 112.7
    angle_coeff 204  50.0 109.5
    angle_coeff 205  50.0 109.5
    angle_coeff 206  69.0 109.8
    angle_coeff 207  69.0 109.8
    angle_coeff 208  78.0 111.7
    angle_coeff 209  50.0 108.6
    angle_coeff 210  50.0 109.5
    angle_coeff 211  63.0 110.1
    angle_coeff 212  80.0 109.7
    angle_coeff 213  80.0 109.7
    angle_coeff 214  50.0 114.7
    angle_coeff 215  56.2 109.47
    angle_coeff 216  56.2 109.47
    angle_coeff 217  56.2 109.47
    angle_coeff 218  56.2 109.47
    angle_coeff 219  80.0 111.2
    angle_coeff 220  33.0 107.8
    angle_coeff 221  35.0 108.5
    angle_coeff 222  35.0 108.5
    angle_coeff 223  35.0 109.5
    angle_coeff 224  35.0 109.5
    angle_coeff 225  35.0 109.5
    angle_coeff 226  35.0 109.5
    angle_coeff 227  35.0 109.5
    angle_coeff 228  35.0 109.5
    angle_coeff 229  35.0 109.5
    angle_coeff 230  35.0 109.5
    angle_coeff 231  35.0 109.5
    angle_coeff 232  37.5 110.7
    angle_coeff 233  40.0 107.0
    angle_coeff 234  51.0 107.6
    angle_coeff 235  35.0 109.5
    angle_coeff 236  50.0 109.5
    angle_coeff 237  63.0 111.1
    angle_coeff 238  63.0 112.4
    angle_coeff 239  35.0 109.5
    angle_coeff 240  40.0 109.5
    angle_coeff 241  40.0 109.5
    angle_coeff 242  50.0 109.5
    angle_coeff 243  50.0 109.5
    angle_coeff 244  50.0 109.5
    angle_coeff 245  50.0 114.7
    angle_coeff 246  63.0 112.0
    angle_coeff 247  63.0 114.0
    angle_coeff 248  63.0 114.0
    angle_coeff 249  80.0 111.2
    angle_coeff 250  35.0 109.5
    angle_coeff 251  37.5 110.7
    angle_coeff 252  50.0 109.5
    angle_coeff 253  58.35 112.7
    angle_coeff 254  35.0 109.5
    angle_coeff 255  80.0 111.2
    angle_coeff 256  80.0 111.2
    angle_coeff 257  35.0 109.5
    angle_coeff 258  80.0 111.2
    angle_coeff 259  35.0 109.5
    angle_coeff 260  63.0 110.1
    angle_coeff 261  65.0 109.0
    angle_coeff 262  35.0 109.5
    angle_coeff 263  80.0 111.2
    angle_coeff 264  35.0 109.5
    angle_coeff 265  63.0 114.0
    angle_coeff 266  41.0 109.5
    angle_coeff 267  43.0 109.5
    angle_coeff 268  43.0 109.5
    angle_coeff 269  51.0 107.6
    angle_coeff 270  69.0 109.8
    angle_coeff 271  69.0 110.0
    angle_coeff 272  69.0 110.0
    angle_coeff 273  78.0 111.7
    angle_coeff 274  75.0 111.0
    angle_coeff 275  75.0 112.0
    angle_coeff 276  35.0 109.5
    angle_coeff 277  50.0 108.6
    angle_coeff 278  50.0 109.5
    angle_coeff 279  35.0 109.5
    angle_coeff 280  63.0 115.6
    angle_coeff 281  35.0 109.5
    angle_coeff 282  63.0 114.0
    angle_coeff 283  35.0 109.5
    angle_coeff 284  50.0 114.7
    angle_coeff 285  63.0 114.0
    angle_coeff 286  35.0 109.5
    angle_coeff 287  63.0 114.0
    angle_coeff 288  35.0 109.5
    angle_coeff 289  63.0 115.6
    angle_coeff 290  35.0 109.5
    angle_coeff 291  80.0 110.0
    angle_coeff 292  80.0 113.0
    angle_coeff 293  37.5 110.7
    angle_coeff 294  35.0 105.0
    angle_coeff 295  63.0 105.0
    angle_coeff 296  35.0 109.5
    angle_coeff 297  80.0 111.2
    angle_coeff 298  35.0 105.0
    angle_coeff 299  63.0 111.1
    angle_coeff 300  41.0 109.5
    angle_coeff 301  43.0 109.5
    angle_coeff 302  35.0 109.5
    angle_coeff 303  50.0 109.5
    angle_coeff 304  50.0 109.5
    angle_coeff 305  35.0 109.5
    angle_coeff 306  80.0 109.7
    angle_coeff 307  35.0 109.5
    angle_coeff 308  60.0 112.0
    angle_coeff 309  70.0 124.0
    angle_coeff 310  70.0 124.0
    angle_coeff 311  70.0 124.0
    angle_coeff 312  70.0 118.0
    angle_coeff 313  70.0 118.0
    angle_coeff 314  70.0 118.0
    angle_coeff 315  70.0 124.0
    angle_coeff 316  70.0 124.0
    angle_coeff 317  70.0 124.0
    angle_coeff 318  70.0 118.0
    angle_coeff 319  70.0 118.0
    angle_coeff 320  70.0 118.0
    angle_coeff 321  70.0 118.0
    angle_coeff 322  70.0 118.0
    angle_coeff 323  70.0 118.0
    angle_coeff 324  70.0 118.0
    angle_coeff 325  70.0 124.0
    angle_coeff 326  70.0 124.0
    angle_coeff 327  70.0 124.0
    angle_coeff 328  70.0 124.0
    angle_coeff 329  70.0 118.0
    angle_coeff 330  70.0 118.0
    angle_coeff 331  70.0 118.0
    angle_coeff 332  70.0 118.0
    angle_coeff 333  70.0 118.0
    angle_coeff 334  70.0 118.0
    angle_coeff 335  70.0 118.0
    angle_coeff 336  35.0 92.07
    angle_coeff 337  44.0 96.0
    angle_coeff 338  44.0 96.0
    angle_coeff 339  44.0 96.0
    angle_coeff 340  5.0 109.47
    angle_coeff 341  10.0 109.47
    angle_coeff 342  10.0 160.0
    angle_coeff 343  150.0 96.7
    angle_coeff 344  150.0 96.7
    angle_coeff 345  150.0 96.7
    angle_coeff 346  150.0 96.7
    angle_coeff 347  50.0 96.0
    angle_coeff 348  62.0 98.9
    angle_coeff 349  62.0 98.9
    angle_coeff 350  68.0 103.7
    angle_coeff 351  68.0 103.7
    angle_coeff 352  68.0 103.7
    angle_coeff 353  65.0 100.0
    angle_coeff 354  5.0 109.47
    angle_coeff 355  10.0 109.47
    angle_coeff 356  10.0 160.0
    angle_coeff 357  150.0 96.7
    angle_coeff 358  150.0 96.7
    angle_coeff 359  150.0 96.7
    angle_coeff 360  150.0 96.7
    angle_coeff 361  62.0 104.2
    angle_coeff 362  62.0 104.2
    angle_coeff 363  74.0 92.4
    angle_coeff 364  10.0 130.0
    angle_coeff 365  10.0 130.0
    angle_coeff 366  74.0 97.0
    angle_coeff 367  10.0 130.0
    angle_coeff 368  74.0 90.0
    angle_coeff 369  74.0 97.0
    angle_coeff 370  74.0 97.0
    angle_coeff 371  62.0 94.0
    angle_coeff 372  10.0 109.47
    angle_coeff 373  33.0 109.47
    angle_coeff 374  150.0 180.0
    angle_coeff 375  170.0 180.0
    angle_coeff 376  100.0 180.0
    angle_coeff 377  150.0 180.0
    angle_coeff 378  140.0 180.0
    angle_coeff 379  150.0 180.0
    angle_coeff 380  10.0 90.0
    angle_coeff 381  112.0 180.0
    angle_coeff 382  150.0 180.0
    angle_coeff 383  160.0 180.0
    angle_coeff 384  150.0 180.0
    angle_coeff 385  160.0 180.0
    angle_coeff 386  160.0 180.0
    angle_coeff 387  150.0 180.0
    angle_coeff 388  150.0 180.0
    angle_coeff 389  100.0 111.8
    angle_coeff 390  83.0 116.9
    angle_coeff 391  83.0 116.9
    angle_coeff 392  100.0 111.8
    angle_coeff 393  55.0 108.5
    angle_coeff 394  55.0 108.5
    angle_coeff 395  83.0 116.9
    angle_coeff 396  100.0 111.8
    angle_coeff 397  60.0 109.5
    angle_coeff 398  83.0 116.9
    angle_coeff 399  5.0 109.47
    angle_coeff 400  10.0 109.47
    angle_coeff 401  75.0 111.0
    angle_coeff 402  10.0 109.47
    angle_coeff 403  75.0 111.0
    angle_coeff 404  75.0 111.0
    angle_coeff 405  75.0 111.0
    angle_coeff 406  83.0 116.9
    angle_coeff 407  100.0 111.8
    angle_coeff 408  60.0 109.5
    angle_coeff 409  100.0 113.0
    angle_coeff 410  100.0 113.0
    angle_coeff 411  100.0 113.0
    angle_coeff 412  70.0 104.5
    angle_coeff 413  10.0 125.0
    angle_coeff 414  100.0 120.5
    angle_coeff 415  100.0 120.5
    angle_coeff 416  100.0 120.5
    angle_coeff 417  100.0 120.5
    angle_coeff 418  100.0 120.5
    angle_coeff 419  100.0 120.5
    angle_coeff 420  10.0 125.0
    angle_coeff 421  70.0 106.5
    angle_coeff 422  70.0 107.0
    angle_coeff 423  10.0 125.0
    angle_coeff 424  70.0 104.0
    angle_coeff 425  70.0 106.5
    angle_coeff 426  70.0 106.5
    angle_coeff 427  70.0 108.9
    angle_coeff 428  20.0 145.0
    angle_coeff 429  40.0 130.0
    angle_coeff 430  33.0 109.47
    angle_coeff 431  62.0 96.0
    angle_coeff 432  74.0 107.0
    angle_coeff 433  10.0 90.0
    angle_coeff 434  50.0 121.9
    angle_coeff 435  70.0 126.4
    angle_coeff 436  46.0 115.7
    angle_coeff 437  50.0 121.9
    angle_coeff 438  50.0 121.9
    angle_coeff 439  50.0 118.0
    angle_coeff 440  50.0 121.9
    angle_coeff 441  50.0 118.0
    angle_coeff 442  50.0 121.9
    angle_coeff 443  70.0 112.0
    angle_coeff 444  70.0 108.6
    angle_coeff 445  10.0 109.5
    angle_coeff 446  10.0 100.0
    angle_coeff 447  35.0 110.2
    angle_coeff 448  35.0 119.8
    angle_coeff 449  35.0 120.0
    angle_coeff 450  38.0 118.4
    angle_coeff 451  38.0 118.4
    angle_coeff 452  38.0 118.4
    angle_coeff 453  38.0 118.4
    angle_coeff 454  35.0 119.8
    angle_coeff 455  50.0 118.0
    angle_coeff 456  50.0 121.9
    angle_coeff 457  70.0 118.0
    angle_coeff 458  35.0 120.0
    angle_coeff 459  35.0 118.0
    angle_coeff 460  70.0 125.2
    angle_coeff 461  50.0 120.0
    angle_coeff 462  100.0 111.0
    angle_coeff 463  35.0 119.8
    angle_coeff 464  70.0 118.0
    angle_coeff 465  70.0 117.0
    angle_coeff 466  35.0 119.8
    angle_coeff 467  70.0 118.0
    angle_coeff 468  35.0 119.8
    angle_coeff 469  70.0 118.0
    angle_coeff 470  40.0 113.0
    angle_coeff 471  55.0 128.0
    angle_coeff 472  70.0 121.0
    angle_coeff 473  20.0 126.0
    angle_coeff 474  33.0 109.47
    angle_coeff 475  75.0 104.52
    angle_coeff 476  50.0 52.26
    angle_coeff 477  34.05 104.52
    angle_coeff 478  75.0 109.5
    angle_coeff 479  50.0 54.75
    angle_coeff 480  75.0 104.52
    angle_coeff 481  50.0 109.47
    angle_coeff 482  50.0 110.6948
    angle_coeff 483  75.0 109.47
    angle_coeff 484  51.8 107.2
    angle_coeff 485  51.8 107.2
    angle_coeff 486  51.8 107.2
    angle_coeff 487  51.8 107.2
    angle_coeff 488  51.8 107.2
    angle_coeff 489  51.8 107.2
    angle_coeff 490  51.8 107.2
    angle_coeff 491  51.8 107.2
    angle_coeff 492  51.8 107.2
    angle_coeff 493  51.8 107.2
    angle_coeff 494  63.0 111.1
    angle_coeff 495  10.0 100.0
    angle_coeff 496  35.0 109.5
    angle_coeff 497  43.2 108.1
    angle_coeff 498  43.2 108.1
    angle_coeff 499  43.2 108.1
    angle_coeff 500  43.6 106.4
    angle_coeff 501  10.0 109.5
    angle_coeff 502  35.0 116.0
    angle_coeff 503  50.0 116.0
    angle_coeff 504  50.0 116.0
    angle_coeff 505  63.0 112.0
    angle_coeff 506  35.0 115.0
    angle_coeff 507  50.0 108.6
    angle_coeff 508  50.0 108.6
    angle_coeff 509  50.0 109.5
    angle_coeff 510  33.0 109.47
    angle_coeff 511  10.0 109.5
    angle_coeff 512  33.0 109.47
    angle_coeff 513  37.5 109.47
    angle_coeff 514  80.0 108.0
    angle_coeff 515  80.0 121.5
    angle_coeff 516  85.0 119.7
    angle_coeff 517  70.0 119.7
    angle_coeff 518  70.0 130.0
    angle_coeff 519  10.0 90.0
    angle_coeff 520  35.0 114.5
    angle_coeff 521  35.0 117.0
    angle_coeff 522  35.0 117.0
    angle_coeff 523  35.0 119.7
    angle_coeff 524  35.0 120.0
    angle_coeff 525  50.0 112.0
    angle_coeff 526  60.0 114.0
    angle_coeff 527  2.0 90.0
    angle_coeff 528  35.0 120.0
    angle_coeff 529  70.0 123.0
    angle_coeff 530  70.0 123.0
    angle_coeff 531  70.0 124.0
    angle_coeff 532  70.0 124.0
    angle_coeff 533  75.0 121.5
    angle_coeff 534  80.0 121.5
    angle_coeff 535  85.0 119.4
    angle_coeff 536  85.0 120.7
    angle_coeff 537  35.0 123.3
    angle_coeff 538  85.0 117.0
    angle_coeff 539  85.0 119.7
    angle_coeff 540  2.0 90.0
    angle_coeff 541  35.0 120.0
    angle_coeff 542  70.0 123.0
    angle_coeff 543  70.0 123.0
    angle_coeff 544  70.0 124.0
    angle_coeff 545  35.0 119.1
    angle_coeff 546  70.0 120.0
    angle_coeff 547  70.0 120.0
    angle_coeff 548  70.0 121.2
    angle_coeff 549  85.0 119.4
    angle_coeff 550  35.0 119.1
    angle_coeff 551  35.0 119.7
    angle_coeff 552  60.0 114.0
    angle_coeff 553  75.0 120.0
    angle_coeff 554  35.0 135.0
    angle_coeff 555  70.0 119.7
    angle_coeff 556  70.0 124.0
    angle_coeff 557  35.0 119.1
    angle_coeff 558  35.0 119.1
    angle_coeff 559  70.0 120.0
    angle_coeff 560  70.0 120.0
    angle_coeff 561  70.0 121.2
    angle_coeff 562  85.0 119.4
    angle_coeff 563  40.0 121.0
    angle_coeff 564  80.0 122.0
    angle_coeff 565  80.0 122.0
    angle_coeff 566  80.0 125.0
    angle_coeff 567  70.0 120.0
    angle_coeff 568  85.0 120.0
    angle_coeff 569  70.0 119.7
    angle_coeff 570  10.0 90.0
    angle_coeff 571  63.0 120.0
    angle_coeff 572  70.0 120.0
    angle_coeff 573  70.0 120.0
    angle_coeff 574  70.0 120.0
    angle_coeff 575  70.0 120.0
    angle_coeff 576  70.0 120.0
    angle_coeff 577  70.0 120.0
    angle_coeff 578  70.0 120.0
    angle_coeff 579  70.0 120.0
    angle_coeff 580  70.0 120.0
    angle_coeff 581  70.0 124.0
    angle_coeff 582  75.0 120.0
    angle_coeff 583  80.0 120.0
    angle_coeff 584  80.0 120.0
    angle_coeff 585  85.0 119.4
    angle_coeff 586  85.0 120.0
    angle_coeff 587  2.0 90.0
    angle_coeff 588  35.0 119.1
    angle_coeff 589  35.0 120.0
    angle_coeff 590  35.0 120.0
    angle_coeff 591  70.0 124.0
    angle_coeff 592  70.0 120.0
    angle_coeff 593  70.0 120.0
    angle_coeff 594  70.0 120.1
    angle_coeff 595  70.0 120.1
    angle_coeff 596  35.0 116.0
    angle_coeff 597  70.0 116.0
    angle_coeff 598  70.0 116.0
    angle_coeff 599  70.0 119.3
    angle_coeff 600  70.0 120.0
    angle_coeff 601  70.0 121.5
    angle_coeff 602  70.0 121.5
    angle_coeff 603  70.0 124.0
    angle_coeff 604  75.0 120.0
    angle_coeff 605  35.0 120.0
    angle_coeff 606  70.0 108.7
    angle_coeff 607  70.0 116.0
    angle_coeff 608  70.0 120.0
    angle_coeff 609  70.0 121.5
    angle_coeff 610  70.0 123.3
    angle_coeff 611  35.0 120.0
    angle_coeff 612  63.0 120.0
    angle_coeff 613  70.0 108.7
    angle_coeff 614  70.0 117.3
    angle_coeff 615  70.0 123.5
    angle_coeff 616  70.0 128.6
    angle_coeff 617  70.0 128.6
    angle_coeff 618  35.0 119.1
    angle_coeff 619  70.0 108.7
    angle_coeff 620  70.0 123.3
    angle_coeff 621  85.0 119.4
    angle_coeff 622  75.0 120.0
    angle_coeff 623  75.0 120.0
    angle_coeff 624  85.0 119.4
    angle_coeff 625  35.0 120.0
    angle_coeff 626  85.0 120.0
    angle_coeff 627  35.0 126.9
    angle_coeff 628  63.0 106.4
    angle_coeff 629  70.0 107.4
    angle_coeff 630  35.0 120.0
    angle_coeff 631  63.0 120.0
    angle_coeff 632  70.0 124.0
    angle_coeff 633  35.0 128.2
    angle_coeff 634  70.0 111.8
    angle_coeff 635  70.0 124.1
    angle_coeff 636  85.0 120.0
    angle_coeff 637  70.0 124.0
    angle_coeff 638  10.0 90.0
    angle_coeff 639  35.0 120.0
    angle_coeff 640  2.0 90.0
    angle_coeff 641  35.0 120.0
    angle_coeff 642  70.0 118.7
    angle_coeff 643  70.0 124.0
    angle_coeff 644  35.0 123.3
    angle_coeff 645  85.0 117.0
    angle_coeff 646  2.0 90.0
    angle_coeff 647  35.0 120.0
    angle_coeff 648  70.0 124.0
    angle_coeff 649  70.0 124.0
    angle_coeff 650  35.0 106.0
    angle_coeff 651  35.0 122.0
    angle_coeff 652  35.0 120.0
    angle_coeff 653  70.0 124.0
    angle_coeff 654  70.0 124.0
    angle_coeff 655  40.0 109.5
    angle_coeff 656  50.0 109.5
    angle_coeff 657  50.0 109.5
    angle_coeff 658  80.0 109.5
    angle_coeff 659  80.0 109.5
    angle_coeff 660  92.6 111.55
    angle_coeff 661  92.6 111.55
    angle_coeff 662  33.0 109.5
    angle_coeff 663  35.0 109.5
    angle_coeff 664  35.0 109.5
    angle_coeff 665  37.5 110.7
    angle_coeff 666  35.0 109.5
    angle_coeff 667  50.0 109.5
    angle_coeff 668  50.0 109.5
    angle_coeff 669  50.0 113.0
    angle_coeff 670  10.0 100.0
    angle_coeff 671  43.6 109.5
    angle_coeff 672  10.0 100.0
    angle_coeff 673  55.0 114.0
    angle_coeff 674  35.0 109.5
    angle_coeff 675  35.0 109.5
    angle_coeff 676  35.0 109.5
    angle_coeff 677  35.0 109.5
    angle_coeff 678  35.0 109.5
    angle_coeff 679  10.0 100.0
    angle_coeff 680  50.0 118.0
    angle_coeff 681  35.0 113.0
    angle_coeff 682  35.0 118.4
    angle_coeff 683  35.0 120.0
    angle_coeff 684  50.0 123.2
    angle_coeff 685  50.0 123.2
    angle_coeff 686  50.0 123.2
    angle_coeff 687  35.0 118.4
    angle_coeff 688  35.0 118.4
    angle_coeff 689  35.0 120.0
    angle_coeff 690  35.0 120.0
    angle_coeff 691  35.0 120.0
    angle_coeff 692  70.0 120.5
    angle_coeff 693  70.0 120.0
    angle_coeff 694  5.0 120.0
    angle_coeff 695  35.0 113.0
    angle_coeff 696  50.0 118.0
    angle_coeff 697  70.0 117.0
    angle_coeff 698  70.0 120.5
    angle_coeff 699  70.0 117.0
    angle_coeff 700  70.0 117.0
    angle_coeff 701  5.0 119.8
    angle_coeff 702  70.0 118.6
    angle_coeff 703  70.0 118.6
    angle_coeff 704  70.0 111.0
    angle_coeff 705  70.0 112.2
    angle_coeff 706  70.0 111.0
    angle_coeff 707  70.0 117.0
    angle_coeff 708  70.0 114.0
    angle_coeff 709  70.0 126.4
    angle_coeff 710  35.0 116.8
    angle_coeff 711  35.0 119.2
    angle_coeff 712  70.0 121.6
    angle_coeff 713  35.0 118.0
    angle_coeff 714  70.0 125.2
    angle_coeff 715  70.0 125.2
    angle_coeff 716  30.0 125.8
    angle_coeff 717  70.0 125.8
    angle_coeff 718  56.0 113.1
    angle_coeff 719  56.0 118.4
    angle_coeff 720  70.0 118.4
    angle_coeff 721  70.0 118.4
    angle_coeff 722  30.0 128.8
    angle_coeff 723  70.0 105.4
    angle_coeff 724  70.0 109.8
    angle_coeff 725  70.0 128.8
    angle_coeff 726  35.0 123.1
    angle_coeff 727  35.0 120.0
    angle_coeff 728  56.0 113.1
    angle_coeff 729  70.0 109.8
    angle_coeff 730  35.0 120.0
    angle_coeff 731  56.0 113.1
    angle_coeff 732  70.0 109.8
    angle_coeff 733  70.0 109.8
    angle_coeff 734  70.0 109.8
    angle_coeff 735  70.0 111.6
    angle_coeff 736  35.0 120.0
    angle_coeff 737  70.0 109.8
    angle_coeff 738  70.0 116.0
    angle_coeff 739  35.0 115.45
    angle_coeff 740  70.0 115.5
    angle_coeff 741  70.0 119.3
    angle_coeff 742  70.0 123.3
    angle_coeff 743  70.0 129.1
    angle_coeff 744  35.0 115.45
    angle_coeff 745  70.0 120.0
    angle_coeff 746  85.0 134.9
    angle_coeff 747  70.0 126.2
    angle_coeff 748  70.0 106.2
    angle_coeff 749  70.0 110.6
    angle_coeff 750  70.0 111.0
    angle_coeff 751  70.0 120.0
    angle_coeff 752  70.0 127.7
    angle_coeff 753  70.0 127.7
    angle_coeff 754  85.0 117.3
    angle_coeff 755  85.0 119.2
    angle_coeff 756  70.0 111.0
    angle_coeff 757  70.0 126.2
    angle_coeff 758  70.0 130.0
    angle_coeff 759  70.0 132.4
    angle_coeff 760  85.0 134.9
    angle_coeff 761  85.0 134.9
    angle_coeff 762  85.0 108.8
    angle_coeff 763  85.0 116.2
    angle_coeff 764  85.0 116.2
    angle_coeff 765  70.0 130.0
    angle_coeff 766  70.0 107.3
    angle_coeff 767  70.0 107.7
    angle_coeff 768  85.0 108.8
    angle_coeff 769  85.0 134.9
    angle_coeff 770  85.0 134.9
    angle_coeff 771  70.0 106.2
    angle_coeff 772  70.0 126.2
    angle_coeff 773  70.0 125.2
    angle_coeff 774  10.0 125.0
    angle_coeff 775  10.0 125.0
    angle_coeff 776  70.0 103.8
    angle_coeff 777  10.0 125.0
    angle_coeff 778  70.0 109.0
    angle_coeff 779  70.0 110.0
    angle_coeff 780  70.0 110.0
    angle_coeff 781  70.0 104.1
    angle_coeff 782  70.0 110.0
    angle_coeff 783  70.0 104.1
    angle_coeff 784  70.0 105.3
    angle_coeff 785  35.0 120.0
    angle_coeff 786  35.0 120.0
    angle_coeff 787  70.0 113.9
    angle_coeff 788  35.0 123.05
    angle_coeff 789  35.0 123.05
    angle_coeff 790  35.0 120.0
    angle_coeff 791  35.0 123.05
    angle_coeff 792  70.0 113.9
    angle_coeff 793  45.0 102.6
    angle_coeff 794  100.0 108.23
    angle_coeff 795  45.0 109.5
    angle_coeff 796  45.0 102.6
    angle_coeff 797  45.0 102.6
    angle_coeff 798  45.0 109.5
    angle_coeff 799  100.0 108.23
    angle_coeff 800  45.0 109.5
    angle_coeff 801  45.0 109.5
    angle_coeff 802  45.0 109.5
    angle_coeff 803  45.0 108.23
    angle_coeff 804  45.0 109.5
    angle_coeff 805  100.0 108.23
    angle_coeff 806  140.0 119.9
    angle_coeff 807  33.0 109.47
    angle_coeff 808  33.0 109.47
    angle_coeff 809  150.0 180.0
    angle_coeff 810  62.0 98.9
    angle_coeff 811  62.0 102.0
    angle_coeff 812  75.0 96.4
    angle_coeff 813  74.0 108.7
    angle_coeff 814  74.0 108.9
    angle_coeff 815  104.0 119.0
    angle_coeff 816  100.0 103.0
    angle_coeff 817  120.0 107.0
    angle_coeff 818  62.0 102.0
    angle_coeff 819  74.0 108.9
    angle_coeff 820  62.0 102.0
    angle_coeff 821  74.0 107.2
    angle_coeff 822  75.0 96.4
    angle_coeff 823  100.0 103.0
    angle_coeff 824  62.0 102.0
    angle_coeff 825  35.0 126.8
    angle_coeff 826  70.0 128.6
    angle_coeff 827  70.0 128.6
    angle_coeff 828  35.0 126.8
    angle_coeff 829  70.0 125.0
    angle_coeff 830  70.0 125.0
    angle_coeff 831  85.0 106.4
    angle_coeff 832  70.0 132.8
    angle_coeff 833  70.0 132.8
    angle_coeff 834  70.0 104.4
    angle_coeff 835  85.0 122.7
    angle_coeff 836  85.0 122.7
    angle_coeff 837  70.0 125.0
    angle_coeff 838  70.0 125.0
    angle_coeff 839  70.0 120.2
    angle_coeff 840  35.0 117.0
    angle_coeff 841  35.0 125.0
    angle_coeff 842  35.0 120.0
    angle_coeff 843  70.0 120.0
    angle_coeff 844  70.0 125.0
    angle_coeff 845  70.0 125.0
    angle_coeff 846  70.0 126.2
    angle_coeff 847  35.0 120.0
    angle_coeff 848  70.0 115.0
    angle_coeff 849  70.0 115.0
    angle_coeff 850  70.0 120.0
    angle_coeff 851  70.0 125.0
    angle_coeff 852  70.0 126.1
    angle_coeff 853  70.0 126.2
    angle_coeff 854  70.0 120.0
    angle_coeff 855  70.0 120.0
    angle_coeff 856  70.0 122.0
    angle_coeff 857  70.0 130.0
    angle_coeff 858  70.0 106.2
    angle_coeff 859  70.0 127.7
    angle_coeff 860  35.0 120.0
    angle_coeff 861  70.0 111.0
    angle_coeff 862  70.0 124.5
    angle_coeff 863  35.0 128.2
    angle_coeff 864  70.0 111.0
    angle_coeff 865  70.0 130.7
    angle_coeff 866  70.0 125.0
    angle_coeff 867  70.0 121.6
    angle_coeff 868  70.0 125.0
    angle_coeff 869  35.0 113.4
    angle_coeff 870  35.0 125.0
    angle_coeff 871  35.0 130.7
    angle_coeff 872  35.0 130.7
    angle_coeff 873  70.0 110.0
    angle_coeff 874  35.0 121.6
    angle_coeff 875  70.0 121.6
    angle_coeff 876  70.0 121.6
    angle_coeff 877  85.0 120.0
    angle_coeff 878  35.0 120.0
    angle_coeff 879  70.0 118.9
    angle_coeff 880  35.0 120.0
    angle_coeff 881  70.0 108.7
    angle_coeff 882  35.0 130.7
    angle_coeff 883  70.0 106.3
    angle_coeff 884  70.0 108.0
    angle_coeff 885  70.0 111.0
    angle_coeff 886  70.0 130.7
    angle_coeff 887  70.0 120.0
    angle_coeff 888  70.0 120.0
    angle_coeff 889  70.0 120.0
    angle_coeff 890  70.0 121.6
    angle_coeff 891  70.0 121.6
    angle_coeff 892  35.0 132.1
    angle_coeff 893  70.0 107.7
    angle_coeff 894  70.0 110.6
    angle_coeff 895  70.0 111.0
    angle_coeff 896  70.0 111.9
    angle_coeff 897  70.0 132.1
    angle_coeff 898  70.0 132.1
    angle_coeff 899  70.0 132.1
    angle_coeff 900  85.0 120.0
    angle_coeff 901  35.0 120.0
    angle_coeff 902  70.0 121.6
    angle_coeff 903  35.0 130.7
    angle_coeff 904  70.0 106.3
    angle_coeff 905  70.0 130.7
    angle_coeff 906  63.0 120.0
    angle_coeff 907  70.0 124.0
    angle_coeff 908  63.0 120.0
    angle_coeff 909  63.0 120.0
    angle_coeff 910  63.0 120.0
    angle_coeff 911  63.0 120.0
    angle_coeff 912  70.0 124.0
    angle_coeff 913  63.0 120.0
    angle_coeff 914  63.0 120.0
    angle_coeff 915  35.0 120.0
    angle_coeff 916  35.0 126.8
    angle_coeff 917  70.0 128.6
    angle_coeff 918  35.0 125.7
    angle_coeff 919  35.0 126.8
    angle_coeff 920  70.0 103.8
    angle_coeff 921  70.0 110.4
    angle_coeff 922  70.0 125.0
    angle_coeff 923  70.0 125.0
    angle_coeff 924  70.0 130.0
    angle_coeff 925  85.0 106.4
    angle_coeff 926  70.0 125.7
    angle_coeff 927  35.0 127.5
    angle_coeff 928  70.0 107.3
    angle_coeff 929  70.0 107.3
    angle_coeff 930  70.0 127.5
    angle_coeff 931  70.0 103.8
    angle_coeff 932  35.0 128.6
    angle_coeff 933  35.0 118.9
    angle_coeff 934  70.0 118.9
    angle_coeff 935  70.0 118.9
    angle_coeff 936  70.0 111.9
    angle_coeff 937  80.0 134.0
    angle_coeff 938  70.0 91.0
    angle_coeff 939  80.0 134.0
    angle_coeff 940  55.0 127.0
    angle_coeff 941  50.0 94.0
    angle_coeff 942  50.0 126.0
    angle_coeff 943  35.0 108.0
    angle_coeff 944  35.0 114.3
    angle_coeff 945  35.0 114.3
    angle_coeff 946  35.0 114.3
    angle_coeff 947  37.5 108.0
    angle_coeff 948  35.0 109.5
    angle_coeff 949  37.5 110.0
    angle_coeff 950  70.0 117.0
    angle_coeff 951  35.0 111.0
    angle_coeff 952  55.0 109.0
    angle_coeff 953  30.0 79.2
    angle_coeff 954  37.5 117.2
    angle_coeff 955  37.5 117.2
    angle_coeff 956  37.5 117.2
    angle_coeff 957  37.5 126.0
    angle_coeff 958  55.0 128.0
    angle_coeff 959  63.0 85.0
    angle_coeff 960  63.0 114.0
    angle_coeff 961  80.0 89.0
    angle_coeff 962  172.8 120.0
    angle_coeff 963  144.0 120.0
    angle_coeff 964  35.0 109.5
    angle_coeff 965  43.6 106.4
    angle_coeff 966  50.0 112.5
    angle_coeff 967  50.0 120.5
    angle_coeff 968  80.0 117.5
    angle_coeff 969  80.0 117.5
    angle_coeff 970  80.0 125.0
    angle_coeff 971  10.0 109.5
    angle_coeff 972  10.0 109.5
    angle_coeff 973  45.0 109.5
    angle_coeff 974  70.0 117.6
    angle_coeff 975  70.0 117.6
    angle_coeff 976  35.0 119.2
    angle_coeff 977  35.0 119.2
    angle_coeff 978  70.0 121.2
    angle_coeff 979  70.0 121.6
    angle_coeff 980  70.0 117.6
    angle_coeff 981  70.0 121.2
    angle_coeff 982  30.0 125.8
    angle_coeff 983  70.0 125.8
    angle_coeff 984  70.0 125.8
    angle_coeff 985  70.0 125.8
    angle_coeff 986  70.0 125.8
    angle_coeff 987  30.0 128.8
    angle_coeff 988  70.0 105.4
    angle_coeff 989  70.0 128.8
    angle_coeff 990  70.0 128.8
    angle_coeff 991  70.0 128.8
    angle_coeff 992  70.0 128.8
    angle_coeff 993  20.0 109.5
    angle_coeff 994  20.0 109.5
    angle_coeff 995  50.0 118.0
    angle_coeff 996  50.0 121.9
    angle_coeff 997  35.0 110.5
    angle_coeff 998  60.0 110.0
    angle_coeff 999  60.0 100.0
    angle_coeff 1000  60.0 110.0
    angle_coeff 1001  35.0 110.5
    angle_coeff 1002  35.0 109.5
    angle_coeff 1003  35.0 110.5
    angle_coeff 1004  35.0 109.5
    angle_coeff 1005  35.0 110.5
    angle_coeff 1006  35.0 110.5
    angle_coeff 1007  35.0 110.5
    angle_coeff 1008  50.0 112.0
    angle_coeff 1009  35.0 123.3
    angle_coeff 1010  35.0 120.0
    angle_coeff 1011  70.0 124.0
    angle_coeff 1012  35.0 120.0
    angle_coeff 1013  70.0 124.0
    angle_coeff 1014  70.0 124.0
    angle_coeff 1015  85.0 117.0
    angle_coeff 1016  160.0 180.0
    angle_coeff 1017  160.0 180.0
    dihedral_coeff 1  -2.5 1.25 3.1 0.0
    dihedral_coeff 2  -2.5 1.25 3.1 0.0
    dihedral_coeff 3  -2.0 0.7 3.0 0.0
    dihedral_coeff 4  -2.0 0.7 3.0 0.0
    dihedral_coeff 5  -3.4 1.25 3.1 0.0
    dihedral_coeff 6  -3.4 1.25 3.1 0.0
    dihedral_coeff 7  -3.4 1.25 3.1 0.0
    dihedral_coeff 8  -3.4 1.25 3.1 0.0
    dihedral_coeff 9  -2.0 0.5 3.25 0.0
    dihedral_coeff 10  -3.4 1.25 3.1 0.0
    dihedral_coeff 11  -2.0 0.5 3.25 0.0
    dihedral_coeff 12  -3.4 1.25 3.1 0.0
    dihedral_coeff 13  0.3 0.0 1.3 0.0
    dihedral_coeff 14  0.3 0.0 1.3 0.0
    dihedral_coeff 15  0.3 0.0 1.3 0.0
    dihedral_coeff 16  -2.5 1.25 3.1 0.0
    dihedral_coeff 17  -3.4 1.25 3.1 0.0
    dihedral_coeff 18  -3.4 1.25 3.1 0.0
    dihedral_coeff 19  -7.4 3.0 1.8 0.0
    dihedral_coeff 20  -8.4 3.0 1.8 0.0
    dihedral_coeff 21  1.6 3.2 0.0 0.0
    dihedral_coeff 22  0.0 0.5 0.0 0.0
    dihedral_coeff 23  0.0 0.0 0.0 0.0
    dihedral_coeff 24  0.0 0.0 0.0 0.0
    dihedral_coeff 25  0.7 -1.5 0.0 0.0
    dihedral_coeff 26  -0.5 0.2 0.0 0.0
    dihedral_coeff 27  0.8 -0.76 0.0 0.0
    dihedral_coeff 28  -0.9 0.3 0.0 0.0
    dihedral_coeff 29  0.0 0.0 0.3 0.0
    dihedral_coeff 30  3.0 5.5 0.0 0.0
    dihedral_coeff 31  0.0 5.0 0.0 0.0
    dihedral_coeff 32  1.5 5.5 0.0 0.0
    dihedral_coeff 33  -2.0 5.0 0.0 0.0
    dihedral_coeff 34  1.5 5.5 0.0 0.0
    dihedral_coeff 35  4.0 5.0 0.0 0.0
    dihedral_coeff 36  0.0 0.0 0.0 0.0
    dihedral_coeff 37  0.0 0.0 0.36 0.0
    dihedral_coeff 38  0.0 0.0 0.085 0.0
    dihedral_coeff 39  0.0 0.0 0.0 0.0
    dihedral_coeff 40  0.0 0.0 0.0 0.0
    dihedral_coeff 41  -0.65 0.0 0.0 0.0
    dihedral_coeff 42  0.0 0.82 0.0 0.0
    dihedral_coeff 43  0.0 0.0 0.0 0.0
    dihedral_coeff 44  0.0 0.0 0.0 0.0
    dihedral_coeff 45  0.0 0.546 0.0 0.0
    dihedral_coeff 46  0.0 1.412 0.0 0.0
    dihedral_coeff 47  5.26 0.82 0.0 0.0
    dihedral_coeff 48  0.0 0.0 0.0 0.0
    dihedral_coeff 49  1.454 -0.144 -0.775 0.0
    dihedral_coeff 50  0.0 0.0 0.275 0.0
    dihedral_coeff 51  0.0 0.0 -0.553 0.0
    dihedral_coeff 52  0.0 0.0 0.132 0.0
    dihedral_coeff 53  0.0 0.0 0.0 0.0
    dihedral_coeff 54  0.0 0.0 0.36 0.0
    dihedral_coeff 55  1.173 0.189 -1.2 0.0
    dihedral_coeff 56  0.65 0.0 0.0 0.0
    dihedral_coeff 57  1.816 1.222 1.581 0.0
    dihedral_coeff 58  0.0 0.0 0.0 0.0
    dihedral_coeff 59  0.0 0.0 0.0 0.0
    dihedral_coeff 60  0.0 0.0 0.36 0.0
    dihedral_coeff 61  0.0 0.0 0.275 0.0
    dihedral_coeff 62  0.0 0.82 0.0 0.0
    dihedral_coeff 63  0.0 0.82 0.0 0.0
    dihedral_coeff 64  0.0 0.0 0.0 0.0
    dihedral_coeff 65  0.0 0.0 0.0 0.0
    dihedral_coeff 66  0.0 0.0 0.36 0.0
    dihedral_coeff 67  0.0 0.0 0.0 0.0
    dihedral_coeff 68  0.0 5.124 0.0 0.0
    dihedral_coeff 69  0.0 5.0 0.0 0.0
    dihedral_coeff 70  4.669 5.124 0.0 0.0
    dihedral_coeff 71  1.5 5.0 0.0 0.0
    dihedral_coeff 72  -2.0 5.0 0.0 0.0
    dihedral_coeff 73  4.669 5.124 0.0 0.0
    dihedral_coeff 74  4.0 5.0 0.0 0.0
    dihedral_coeff 75  0.4 4.9 0.0 0.0
    dihedral_coeff 76  0.0 4.9 0.0 0.0
    dihedral_coeff 77  0.0 6.603 0.0 0.0
    dihedral_coeff 78  0.0 6.089 0.0 0.0
    dihedral_coeff 79  0.0 4.9 0.0 0.0
    dihedral_coeff 80  0.0 6.089 0.0 0.0
    dihedral_coeff 81  0.0 6.089 0.0 0.0
    dihedral_coeff 82  0.0 6.089 0.0 0.0
    dihedral_coeff 83  2.3 6.089 0.0 0.0
    dihedral_coeff 84  0.0 4.9 0.0 0.0
    dihedral_coeff 85  4.542 6.603 1.045 0.0
    dihedral_coeff 86  2.3 6.089 0.0 0.0
    dihedral_coeff 87  0.0 4.9 0.0 0.0
    dihedral_coeff 88  2.3 6.089 0.0 0.0
    dihedral_coeff 89  2.3 6.089 0.0 0.0
    dihedral_coeff 90  0.0 4.9 0.0 0.0
    dihedral_coeff 91  2.3 6.089 0.0 0.0
    dihedral_coeff 92  4.6 0.0 0.0 0.0
    dihedral_coeff 93  0.0 4.9 0.0 0.0
    dihedral_coeff 94  2.3 6.089 0.0 0.0
    dihedral_coeff 95  0.0 4.9 0.0 0.0
    dihedral_coeff 96  0.0 4.9 0.0 0.0
    dihedral_coeff 97  0.0 4.9 0.0 0.0
    dihedral_coeff 98  2.3 6.089 0.0 0.0
    dihedral_coeff 99  2.3 6.089 0.0 0.0
    dihedral_coeff 100  2.3 6.089 0.0 0.0
    dihedral_coeff 101  2.3 6.089 0.0 0.0
    dihedral_coeff 102  2.3 6.089 0.0 0.0
    dihedral_coeff 103  2.3 6.089 0.0 0.0
    dihedral_coeff 104  0.0 4.9 0.0 0.0
    dihedral_coeff 105  2.3 6.089 0.0 0.0
    dihedral_coeff 106  2.3 6.089 0.0 0.0
    dihedral_coeff 107  2.3 6.089 0.0 0.0
    dihedral_coeff 108  0.9 0.23 -0.505 0.0
    dihedral_coeff 109  0.0 0.0 0.0 0.0
    dihedral_coeff 110  2.5 6.0 0.0 0.0
    dihedral_coeff 111  3.2 -3.0 0.0 0.0
    dihedral_coeff 112  0.0 0.0 0.0 0.0
    dihedral_coeff 113  2.0 0.0 0.0 0.0
    dihedral_coeff 114  0.0 0.0 0.0 0.0
    dihedral_coeff 115  2.0 0.0 0.0 0.0
    dihedral_coeff 116  0.0 2.1 0.0 0.0
    dihedral_coeff 117  0.0 2.1 0.0 0.0
    dihedral_coeff 118  0.0 0.2 0.0 0.0
    dihedral_coeff 119  0.0 2.1 0.0 0.0
    dihedral_coeff 120  0.0 1.1 0.0 0.0
    dihedral_coeff 121  0.0 0.2 0.0 0.0
    dihedral_coeff 122  0.9 0.23 -0.505 0.0
    dihedral_coeff 123  2.5 6.0 0.0 0.0
    dihedral_coeff 124  3.2 -3.0 0.0 0.0
    dihedral_coeff 125  0.8 -3.0 0.0 0.0
    dihedral_coeff 126  0.0 14.0 0.0 0.0
    dihedral_coeff 127  0.0 14.0 0.0 0.0
    dihedral_coeff 128  0.0 14.0 0.0 0.0
    dihedral_coeff 129  0.0 14.0 0.0 0.0
    dihedral_coeff 130  0.0 7.0 0.0 0.0
    dihedral_coeff 131  0.0 7.0 0.0 0.0
    dihedral_coeff 132  0.0 0.0 0.0 0.0
    dihedral_coeff 133  2.0 1.0 0.0 0.0
    dihedral_coeff 134  0.0 1.0 0.0 0.0
    dihedral_coeff 135  -2.0 1.0 0.0 0.0
    dihedral_coeff 136  0.0 1.0 0.0 0.0
    dihedral_coeff 137  -0.75 1.5 0.0 0.0
    dihedral_coeff 138  0.75 1.5 0.0 0.0
    dihedral_coeff 139  0.0 1.5 0.0 0.0
    dihedral_coeff 140  0.0 1.5 0.0 0.0
    dihedral_coeff 141  0.0 2.17 0.0 0.0
    dihedral_coeff 142  0.0 7.25 0.0 0.0
    dihedral_coeff 143  0.0 2.1 0.0 0.0
    dihedral_coeff 144  0.0 2.1 0.0 0.0
    dihedral_coeff 145  0.0 1.1 0.0 0.0
    dihedral_coeff 146  0.0 1.1 0.0 0.0
    dihedral_coeff 147  0.0 4.9 0.0 0.0
    dihedral_coeff 148  0.0 4.9 0.0 0.0
    dihedral_coeff 149  2.5 6.0 0.0 0.0
    dihedral_coeff 150  3.2 -3.0 0.0 0.0
    dihedral_coeff 151  0.0 0.0 0.0 0.0
    dihedral_coeff 152  0.3 0.0 0.5 0.0
    dihedral_coeff 153  0.3 0.0 0.5 0.0
    dihedral_coeff 154  0.0 0.0 0.2 0.0
    dihedral_coeff 155  0.0 0.0 0.2 0.0
    dihedral_coeff 156  -0.356 -0.174 0.492 0.0
    dihedral_coeff 157  0.0 0.0 0.352 0.0
    dihedral_coeff 158  -0.9 0.0 0.0 0.0
    dihedral_coeff 159  -0.9 0.0 0.0 0.0
    dihedral_coeff 160  -0.9 0.0 0.0 0.0
    dihedral_coeff 161  0.0 0.0 0.3 0.0
    dihedral_coeff 162  0.0 0.0 0.3 0.0
    dihedral_coeff 163  5.519 -6.7 0.581 0.0
    dihedral_coeff 164  2.722 -5.154 0.0 0.0
    dihedral_coeff 165  0.0 1.682 0.0 0.0
    dihedral_coeff 166  0.0 1.682 0.0 0.0
    dihedral_coeff 167  -1.257 -1.806 0.003 0.0
    dihedral_coeff 168  3.0 3.0 0.0 0.0
    dihedral_coeff 169  0.0 0.0 0.0 0.0
    dihedral_coeff 170  0.0 0.0 0.0 0.0
    dihedral_coeff 171  -0.75 0.0 0.0 0.0
    dihedral_coeff 172  0.75 0.0 0.0 0.0
    dihedral_coeff 173  2.0 0.0 0.0 0.0
    dihedral_coeff 174  -4.344 -1.714 0.0 0.0
    dihedral_coeff 175  1.711 -0.5 0.663 0.0
    dihedral_coeff 176  1.428 0.086 0.029 0.0
    dihedral_coeff 177  -2.5 0.0 0.25 0.0
    dihedral_coeff 178  0.0 0.0 0.54 0.0
    dihedral_coeff 179  0.3 -0.4 0.4 0.0
    dihedral_coeff 180  0.0 0.0 0.4 0.0
    dihedral_coeff 181  -0.55 0.0 1.0 0.0
    dihedral_coeff 182  -6.18 0.0 0.0 0.0
    dihedral_coeff 183  -2.06 -0.313 0.315 0.0
    dihedral_coeff 184  -4.344 -1.714 0.0 0.0
    dihedral_coeff 185  -4.344 -1.714 0.0 0.0
    dihedral_coeff 186  -9.0 2.0 0.8 0.0
    dihedral_coeff 187  0.0 0.0 -0.1 0.0
    dihedral_coeff 188  -1.697 -0.456 0.585 0.0
    dihedral_coeff 189  -1.697 -0.456 0.585 0.0
    dihedral_coeff 190  9.508 0.0 0.0 0.0
    dihedral_coeff 191  -1.552 0.0 0.0 0.0
    dihedral_coeff 192  4.319 0.0 0.0 0.0
    dihedral_coeff 193  8.0 0.0 0.0 0.0
    dihedral_coeff 194  6.28 -1.467 2.03 0.0
    dihedral_coeff 195  0.0 0.0 0.468 0.0
    dihedral_coeff 196  1.3 -0.05 0.2 0.0
    dihedral_coeff 197  1.262 -0.198 0.465 0.0
    dihedral_coeff 198  2.619 -0.62 0.258 0.0
    dihedral_coeff 199  0.0 -0.65 0.0 0.0
    dihedral_coeff 200  0.0 0.0 0.4 0.0
    dihedral_coeff 201  2.392 -0.674 0.55 0.0
    dihedral_coeff 202  0.845 -0.962 0.713 0.0
    dihedral_coeff 203  0.0 0.0 0.3 0.0
    dihedral_coeff 204  1.3 -0.05 0.2 0.0
    dihedral_coeff 205  2.732 -0.229 0.485 0.0
    dihedral_coeff 206  0.0 0.0 0.4 0.0
    dihedral_coeff 207  0.0 0.0 0.4 0.0
    dihedral_coeff 208  1.262 -0.198 0.465 0.0
    dihedral_coeff 209  1.964 0.0 0.659 0.0
    dihedral_coeff 210  0.0 0.0 0.0 0.0
    dihedral_coeff 211  0.0 0.0 0.452 0.0
    dihedral_coeff 212  0.0 0.0 0.452 0.0
    dihedral_coeff 213  0.0 0.0 0.366 0.0
    dihedral_coeff 214  -0.55 0.0 0.0 0.0
    dihedral_coeff 215  0.0 0.0 0.468 0.0
    dihedral_coeff 216  -0.25 0.0 0.0 0.0
    dihedral_coeff 217  2.0 0.0 0.0 0.0
    dihedral_coeff 218  0.0 0.0 0.4 0.0
    dihedral_coeff 219  11.035 -0.968 0.27 0.0
    dihedral_coeff 220  -1.013 -0.709 0.473 0.0
    dihedral_coeff 221  -0.8 0.0 0.0 0.0
    dihedral_coeff 222  0.0 0.0 0.464 0.0
    dihedral_coeff 223  0.845 -0.962 0.713 0.0
    dihedral_coeff 224  0.845 -0.962 0.713 0.0
    dihedral_coeff 225  0.0 0.0 0.3 0.0
    dihedral_coeff 226  0.0 0.0 0.366 0.0
    dihedral_coeff 227  0.0 0.0 0.462 0.0
    dihedral_coeff 228  0.0 0.0 0.3 0.0
    dihedral_coeff 229  0.0 0.0 0.384 0.0
    dihedral_coeff 230  0.0 0.0 -0.582 0.0
    dihedral_coeff 231  0.0 0.0 0.462 0.0
    dihedral_coeff 232  0.0 0.0 0.462 0.0
    dihedral_coeff 233  0.0 0.0 0.4 0.0
    dihedral_coeff 234  0.0 0.0 0.4 0.0
    dihedral_coeff 235  0.0 0.0 0.452 0.0
    dihedral_coeff 236  0.0 0.0 0.462 0.0
    dihedral_coeff 237  0.0 0.0 0.462 0.0
    dihedral_coeff 238  0.0 0.0 0.462 0.0
    dihedral_coeff 239  0.0 0.0 0.462 0.0
    dihedral_coeff 240  0.0 0.0 0.462 0.0
    dihedral_coeff 241  0.0 0.0 0.462 0.0
    dihedral_coeff 242  0.0 0.0 -0.225 0.0
    dihedral_coeff 243  0.0 0.0 0.3 0.0
    dihedral_coeff 244  0.0 0.0 0.464 0.0
    dihedral_coeff 245  0.0 0.0 0.45 0.0
    dihedral_coeff 246  0.0 0.0 0.366 0.0
    dihedral_coeff 247  1.0 0.0 0.0 0.0
    dihedral_coeff 248  5.2 -0.5 0.0 0.0
    dihedral_coeff 249  -0.759 -0.282 0.68 0.0
    dihedral_coeff 250  0.0 0.0 0.48 0.0
    dihedral_coeff 251  0.925 -0.576 0.677 0.0
    dihedral_coeff 252  1.941 -0.836 0.935 0.0
    dihedral_coeff 253  0.0 0.0 0.647 0.0
    dihedral_coeff 254  0.0 0.0 0.558 0.0
    dihedral_coeff 255  0.0 0.0 0.647 0.0
    dihedral_coeff 256  0.0 0.0 0.0 0.0
    dihedral_coeff 257  0.0 0.0 0.0 0.0
    dihedral_coeff 258  0.0 0.0 0.0 0.0
    dihedral_coeff 259  0.0 0.0 0.0 0.0
    dihedral_coeff 260  0.0 0.0 0.0 0.0
    dihedral_coeff 261  0.0 0.0 0.0 0.0
    dihedral_coeff 262  -0.521 -2.018 1.996 0.0
    dihedral_coeff 263  -0.5 -1.5 1.0 0.0
    dihedral_coeff 264  -0.5 -1.5 1.0 0.0
    dihedral_coeff 265  -1.22 -0.126 0.422 0.0
    dihedral_coeff 266  0.65 -0.25 0.67 0.0
    dihedral_coeff 267  -1.42 -0.62 0.1 0.0
    dihedral_coeff 268  0.0 0.0 0.76 0.0
    dihedral_coeff 269  0.0 0.0 0.198 0.0
    dihedral_coeff 270  0.0 0.0 0.76 0.0
    dihedral_coeff 271  0.0 0.0 0.76 0.0
    dihedral_coeff 272  0.0 0.0 0.76 0.0
    dihedral_coeff 273  0.0 0.0 0.3 0.0
    dihedral_coeff 274  0.0 0.0 0.0 0.0
    dihedral_coeff 275  -2.365 0.912 -0.85 0.0
    dihedral_coeff 276  -1.737 1.251 -3.501 0.0
    dihedral_coeff 277  0.0 0.0 0.0 0.0
    dihedral_coeff 278  0.0 0.462 0.0 0.0
    dihedral_coeff 279  4.753 -0.734 0.0 0.0
    dihedral_coeff 280  0.0 0.0 0.0 0.0
    dihedral_coeff 281  0.0 0.0 0.0 0.0
    dihedral_coeff 282  2.929 -2.533 0.497 0.0
    dihedral_coeff 283  2.3 6.089 0.0 0.0
    dihedral_coeff 284  0.0 0.0 0.0 0.0
    dihedral_coeff 285  0.0 0.0 0.0 0.0
    dihedral_coeff 286  0.0 0.0 0.0 0.0
    dihedral_coeff 287  0.0 0.0 0.0 0.0
    dihedral_coeff 288  1.362 -1.457 0.149 0.0
    dihedral_coeff 289  0.0 0.0 0.0 0.0
    dihedral_coeff 290  0.416 -0.128 0.695 0.0
    dihedral_coeff 291  -0.19 -0.417 0.418 0.0
    dihedral_coeff 292  0.0 0.0 0.56 0.0
    dihedral_coeff 293  0.0 0.0 0.4 0.0
    dihedral_coeff 294  0.0 0.0 0.56 0.0
    dihedral_coeff 295  1.711 -0.5 0.663 0.0
    dihedral_coeff 296  0.0 0.0 0.468 0.0
    dihedral_coeff 297  0.5 0.0 0.0 0.0
    dihedral_coeff 298  0.5 0.0 0.0 0.0
    dihedral_coeff 299  0.5 0.0 0.0 0.0
    dihedral_coeff 300  2.817 -0.169 0.543 0.0
    dihedral_coeff 301  0.346 0.405 -0.904 0.0
    dihedral_coeff 302  0.346 0.405 -0.904 0.0
    dihedral_coeff 303  0.0 0.0 0.3 0.0
    dihedral_coeff 304  0.0 0.0 0.318 0.0
    dihedral_coeff 305  0.0 0.0 -0.372 0.0
    dihedral_coeff 306  0.0 0.0 -0.372 0.0
    dihedral_coeff 307  0.0 0.0 -0.25 0.0
    dihedral_coeff 308  0.0 -8.0 0.0 0.0
    dihedral_coeff 309  0.0 -8.0 0.0 0.0
    dihedral_coeff 310  0.0 0.0 0.0 0.0
    dihedral_coeff 311  0.0 0.45 0.0 0.0
    dihedral_coeff 312  0.0 0.0 0.0 0.0
    dihedral_coeff 313  -0.5 0.5 -0.5 0.0
    dihedral_coeff 314  0.0 -0.4 0.0 0.0
    dihedral_coeff 315  0.0 0.0 0.0 0.0
    dihedral_coeff 316  0.0 0.0 0.0 0.0
    dihedral_coeff 317  0.0 0.0 0.4 0.0
    dihedral_coeff 318  0.5 0.0 0.0 0.0
    dihedral_coeff 319  0.346 0.405 -0.904 0.0
    dihedral_coeff 320  0.0 0.0 -0.372 0.0
    dihedral_coeff 321  0.0 0.0 -0.372 0.0
    dihedral_coeff 322  0.0 0.0 -0.372 0.0
    dihedral_coeff 323  1.711 -0.5 0.663 0.0
    dihedral_coeff 324  0.0 0.0 0.3 0.0
    dihedral_coeff 325  0.0 0.0 0.468 0.0
    dihedral_coeff 326  1.438 -0.124 0.264 0.0
    dihedral_coeff 327  0.0 0.0 0.347 0.0
    dihedral_coeff 328  0.0 0.0 0.302 0.0
    dihedral_coeff 329  0.0 0.0 0.261 0.0
    dihedral_coeff 330  0.0 0.0 0.462 0.0
    dihedral_coeff 331  0.0 0.0 0.3 0.0
    dihedral_coeff 332  -0.19 -0.417 0.418 0.0
    dihedral_coeff 333  1.829 0.243 -0.498 0.0
    dihedral_coeff 334  -0.19 -0.417 0.418 0.0
    dihedral_coeff 335  0.0 0.0 0.0 0.0
    dihedral_coeff 336  0.0 0.0 0.0 0.0
    dihedral_coeff 337  0.0 0.0 0.177 0.0
    dihedral_coeff 338  0.0 0.0 0.0 0.0
    dihedral_coeff 339  0.0 0.0 0.0 0.0
    dihedral_coeff 340  1.0 -0.35 0.0 0.0
    dihedral_coeff 341  2.756 -0.872 -3.68 0.0
    dihedral_coeff 342  -1.0 -0.35 0.0 0.0
    dihedral_coeff 343  1.5 -1.5 0.0 0.0
    dihedral_coeff 344  -1.5 -1.5 0.0 0.0
    dihedral_coeff 345  -1.5 -1.5 0.0 0.0
    dihedral_coeff 346  0.0 0.0 0.0 0.0
    dihedral_coeff 347  0.0 0.5 -0.5 0.0
    dihedral_coeff 348  0.0 0.0 0.0 0.0
    dihedral_coeff 349  0.0 0.0 0.0 0.0
    dihedral_coeff 350  0.0 0.0 0.0 0.0
    dihedral_coeff 351  0.0 0.0 0.25 0.0
    dihedral_coeff 352  0.0 0.0 0.25 0.0
    dihedral_coeff 353  2.25 0.0 0.0 0.0
    dihedral_coeff 354  0.0 0.0 0.0 0.0
    dihedral_coeff 355  0.0 0.0 0.0 0.0
    dihedral_coeff 356  0.0 0.0 0.0 0.0
    dihedral_coeff 357  0.0 0.0 0.0 0.0
    dihedral_coeff 358  0.0 0.0 0.0 0.0
    dihedral_coeff 359  0.0 0.0 0.35 0.0
    dihedral_coeff 360  0.0 0.0 0.35 0.0
    dihedral_coeff 361  0.0 0.0 0.35 0.0
    dihedral_coeff 362  0.0 0.0 0.35 0.0
    dihedral_coeff 363  0.0 0.0 0.0 0.0
    dihedral_coeff 364  0.0 0.0 0.0 0.0
    dihedral_coeff 365  -0.714 0.0 0.0 0.0
    dihedral_coeff 366  0.0 0.0 0.0 0.0
    dihedral_coeff 367  0.0 0.0 0.0 0.0
    dihedral_coeff 368  0.0 0.0 -0.48 0.0
    dihedral_coeff 369  0.0 0.0 0.0 0.0
    dihedral_coeff 370  0.0 0.0 0.0 0.0
    dihedral_coeff 371  0.0 0.0 0.0 0.0
    dihedral_coeff 372  0.0 0.0 0.0 0.0
    dihedral_coeff 373  0.0 0.45 0.0 0.0
    dihedral_coeff 374  0.0 0.0 0.0 0.0
    dihedral_coeff 375  1.7 -0.6 0.0 0.0
    dihedral_coeff 376  0.0 -0.4 0.0 0.0
    dihedral_coeff 377  0.0 0.0 0.0 0.0
    dihedral_coeff 378  0.0 0.45 0.0 0.0
    dihedral_coeff 379  0.0 0.0 0.0 0.0
    dihedral_coeff 380  0.0 -0.4 0.0 0.0
    dihedral_coeff 381  0.0 0.0 0.0 0.0
    dihedral_coeff 382  0.0 0.0 0.0 0.0
    dihedral_coeff 383  0.0 0.0 0.0 0.0
    dihedral_coeff 384  0.0 0.0 0.0 0.0
    dihedral_coeff 385  0.0 0.0 0.0 0.0
    dihedral_coeff 386  0.0 0.0 0.3 0.0
    dihedral_coeff 387  0.0 -1.0 0.0 0.0
    dihedral_coeff 388  0.0 -1.0 0.0 0.0
    dihedral_coeff 389  0.0 0.4 0.0 0.0
    dihedral_coeff 390  0.0 0.0 0.0 0.0
    dihedral_coeff 391  1.0 -0.5 0.5 0.0
    dihedral_coeff 392  0.0 0.0 0.3 0.0
    dihedral_coeff 393  0.0 0.0 0.0 0.0
    dihedral_coeff 394  1.0 -0.35 0.0 0.0
    dihedral_coeff 395  -1.0 -0.35 0.0 0.0
    dihedral_coeff 396  -1.0 -0.35 0.0 0.0
    dihedral_coeff 397  1.5 -1.5 0.0 0.0
    dihedral_coeff 398  3.132 -1.491 2.744 0.0
    dihedral_coeff 399  -1.5 -1.5 0.0 0.0
    dihedral_coeff 400  -1.737 1.251 -3.501 0.0
    dihedral_coeff 401  -1.396 -0.427 0.0 0.0
    dihedral_coeff 402  4.753 -0.734 0.0 0.0
    dihedral_coeff 403  0.0 0.0 -0.139 0.0
    dihedral_coeff 404  0.0 0.0 0.0 0.0
    dihedral_coeff 405  0.0 0.0 0.0 0.0
    dihedral_coeff 406  1.0 0.0 0.0 0.0
    dihedral_coeff 407  0.0 0.0 0.26 0.0
    dihedral_coeff 408  0.0 0.0 0.18 0.0
    dihedral_coeff 409  0.0 0.0 0.0 0.0
    dihedral_coeff 410  0.0 0.0 0.18 0.0
    dihedral_coeff 411  0.346 0.405 -0.904 0.0
    dihedral_coeff 412  0.0 0.0 0.3 0.0
    dihedral_coeff 413  0.0 0.0 0.318 0.0
    dihedral_coeff 414  0.0 0.0 -0.372 0.0
    dihedral_coeff 415  0.0 1.1 0.0 0.0
    dihedral_coeff 416  0.0 1.1 0.0 0.0
    dihedral_coeff 417  0.0 -7.414 1.705 0.0
    dihedral_coeff 418  0.0 0.6 0.0 0.0
    dihedral_coeff 419  1.6 5.1 0.0 0.0
    dihedral_coeff 420  0.0 4.8 0.0 0.0
    dihedral_coeff 421  0.0 7.25 0.0 0.0
    dihedral_coeff 422  0.0 7.25 0.0 0.0
    dihedral_coeff 423  0.0 7.25 0.0 0.0
    dihedral_coeff 424  0.0 7.25 0.0 0.0
    dihedral_coeff 425  0.0 7.25 0.0 0.0
    dihedral_coeff 426  0.0 0.0 0.0 0.0
    dihedral_coeff 427  0.0 0.0 0.0 0.0
    dihedral_coeff 428  0.0 0.0 0.0 0.0
    dihedral_coeff 429  0.0 0.0 0.0 0.0
    dihedral_coeff 430  0.0 0.0 0.0 0.0
    dihedral_coeff 431  0.0 0.0 0.0 0.0
    dihedral_coeff 432  0.0 0.0 0.0 0.0
    dihedral_coeff 433  0.0 0.0 0.0 0.0
    dihedral_coeff 434  0.0 0.0 0.0 0.0
    dihedral_coeff 435  0.0 0.0 0.0 0.0
    dihedral_coeff 436  0.0 0.0 0.0 0.0
    dihedral_coeff 437  0.0 0.0 0.0 0.0
    dihedral_coeff 438  0.0 0.0 0.0 0.0
    dihedral_coeff 439  0.0 0.0 0.0 0.0
    dihedral_coeff 440  0.0 0.0 0.0 0.0
    dihedral_coeff 441  0.0 0.0 0.3 0.0
    dihedral_coeff 442  0.0 0.0 0.3 0.0
    dihedral_coeff 443  0.65 -0.25 0.67 0.0
    dihedral_coeff 444  0.0 0.0 0.76 0.0
    dihedral_coeff 445  -3.5 3.0 0.0 0.0
    dihedral_coeff 446  -3.5 3.0 0.0 0.0
    dihedral_coeff 447  0.0 2.5 0.0 0.0
    dihedral_coeff 448  0.0 3.0 0.0 0.0
    dihedral_coeff 449  0.4 5.5 0.0 0.0
    dihedral_coeff 450  0.0 2.99 0.0 0.0
    dihedral_coeff 451  -0.375 -1.358 0.004 0.0
    dihedral_coeff 452  0.65 -0.25 0.67 0.0
    dihedral_coeff 453  -0.375 -1.358 0.004 0.0
    dihedral_coeff 454  0.0 0.0 0.76 0.0
    dihedral_coeff 455  3.0 3.0 0.0 0.0
    dihedral_coeff 456  0.0 5.2 0.0 0.0
    dihedral_coeff 457  0.0 0.0 0.562 0.0
    dihedral_coeff 458  3.5 -3.3 1.5 0.0
    dihedral_coeff 459  0.0 0.0 0.0 0.0
    dihedral_coeff 460  0.0 0.0 0.0 0.0
    dihedral_coeff 461  0.0 7.25 0.0 0.0
    dihedral_coeff 462  0.0 7.25 0.0 0.0
    dihedral_coeff 463  0.0 7.25 0.0 0.0
    dihedral_coeff 464  0.0 7.25 0.0 0.0
    dihedral_coeff 465  0.0 0.0 0.0 0.0
    dihedral_coeff 466  0.0 0.0 0.0 0.0
    dihedral_coeff 467  0.0 2.1 0.0 0.0
    dihedral_coeff 468  0.0 2.1 0.0 0.0
    dihedral_coeff 469  0.0 2.1 0.0 0.0
    dihedral_coeff 470  0.0 2.1 0.0 0.0
    dihedral_coeff 471  0.0 2.1 0.0 0.0
    dihedral_coeff 472  0.0 2.1 0.0 0.0
    dihedral_coeff 473  0.0 2.1 0.0 0.0
    dihedral_coeff 474  0.0 7.25 0.0 0.0
    dihedral_coeff 475  0.0 7.25 0.0 0.0
    dihedral_coeff 476  0.0 7.25 0.0 0.0
    dihedral_coeff 477  0.0 7.25 0.0 0.0
    dihedral_coeff 478  0.0 0.0 0.0 0.0
    dihedral_coeff 479  2.074 -2.966 2.473 0.0
    dihedral_coeff 480  1.671 -4.901 0.669 0.0
    dihedral_coeff 481  0.0 2.1 0.0 0.0
    dihedral_coeff 482  0.0 2.1 0.0 0.0
    dihedral_coeff 483  0.0 2.1 0.0 0.0
    dihedral_coeff 484  0.0 2.1 0.0 0.0
    dihedral_coeff 485  0.0 2.1 0.0 0.0
    dihedral_coeff 486  0.0 2.1 0.0 0.0
    dihedral_coeff 487  0.0 2.1 0.0 0.0
    dihedral_coeff 488  0.0 2.17 0.0 0.0
    dihedral_coeff 489  0.0 3.0 0.0 0.0
    dihedral_coeff 490  0.0 2.1 0.0 0.0
    dihedral_coeff 491  0.0 2.1 0.0 0.0
    dihedral_coeff 492  0.0 2.1 0.0 0.0
    dihedral_coeff 493  0.0 2.1 0.0 0.0
    dihedral_coeff 494  0.0 2.17 0.0 0.0
    dihedral_coeff 495  0.0 2.17 0.0 0.0
    dihedral_coeff 496  0.0 7.25 0.0 0.0
    dihedral_coeff 497  0.0 2.17 0.0 0.0
    dihedral_coeff 498  0.0 2.17 0.0 0.0
    dihedral_coeff 499  0.0 2.17 0.0 0.0
    dihedral_coeff 500  0.0 2.17 0.0 0.0
    dihedral_coeff 501  0.0 0.0 0.0 0.0
    dihedral_coeff 502  -1.396 -0.427 0.0 0.0
    dihedral_coeff 503  -1.396 -0.427 0.0 0.0
    dihedral_coeff 504  0.0 0.0 0.0 0.0
    dihedral_coeff 505  0.0 0.0 0.0 0.0
    dihedral_coeff 506  0.0 0.0 0.0 0.0
    dihedral_coeff 507  0.0 0.0 0.0 0.0
    dihedral_coeff 508  0.0 0.0 0.3 0.0
    dihedral_coeff 509  0.0 0.0 0.3 0.0
    dihedral_coeff 510  0.0 0.0 0.3 0.0
    dihedral_coeff 511  -7.582 3.431 3.198 0.0
    dihedral_coeff 512  0.0 2.03 0.0 0.0
    dihedral_coeff 513  0.0 2.1 0.0 0.0
    dihedral_coeff 514  0.0 2.1 0.0 0.0
    dihedral_coeff 515  0.0 2.1 0.0 0.0
    dihedral_coeff 516  0.0 2.1 0.0 0.0
    dihedral_coeff 517  0.0 2.1 0.0 0.0
    dihedral_coeff 518  0.0 2.1 0.0 0.0
    dihedral_coeff 519  0.0 2.1 0.0 0.0
    dihedral_coeff 520  0.0 -8.0 0.0 0.0
    dihedral_coeff 521  0.0 -8.0 0.0 0.0
    dihedral_coeff 522  0.0 14.0 0.0 0.0
    dihedral_coeff 523  0.0 14.0 0.0 0.0
    dihedral_coeff 524  0.0 14.0 0.0 0.0
    dihedral_coeff 525  0.0 14.0 0.0 0.0
    dihedral_coeff 526  0.0 14.0 0.0 0.0
    dihedral_coeff 527  0.0 14.0 0.0 0.0
    dihedral_coeff 528  0.0 14.0 0.0 0.0
    dihedral_coeff 529  0.0 14.0 0.0 0.0
    dihedral_coeff 530  0.0 14.0 0.0 0.0
    dihedral_coeff 531  0.0 14.0 0.0 0.0
    dihedral_coeff 532  0.0 14.0 0.0 0.0
    dihedral_coeff 533  0.0 14.0 0.0 0.0
    dihedral_coeff 534  -1.6 14.0 0.0 0.0
    dihedral_coeff 535  0.0 14.0 0.0 0.0
    dihedral_coeff 536  0.0 14.0 0.0 0.0
    dihedral_coeff 537  0.0 14.0 0.0 0.0
    dihedral_coeff 538  0.205 -0.531 0.0 0.0
    dihedral_coeff 539  0.0 0.0 -0.372 0.0
    dihedral_coeff 540  0.0 0.0 -0.372 0.0
    dihedral_coeff 541  1.241 3.353 -0.286 0.0
    dihedral_coeff 542  0.0 14.0 0.0 0.0
    dihedral_coeff 543  0.0 14.0 0.0 0.0
    dihedral_coeff 544  0.0 14.0 0.0 0.0
    dihedral_coeff 545  0.0 14.0 0.0 0.0
    dihedral_coeff 546  0.0 14.0 0.0 0.0
    dihedral_coeff 547  0.0 14.0 0.0 0.0
    dihedral_coeff 548  0.0 14.0 0.0 0.0
    dihedral_coeff 549  0.0 14.0 0.0 0.0
    dihedral_coeff 550  0.0 14.0 0.0 0.0
    dihedral_coeff 551  0.0 14.0 0.0 0.0
    dihedral_coeff 552  0.0 14.0 0.0 0.0
    dihedral_coeff 553  0.0 2.17 0.0 0.0
    dihedral_coeff 554  0.0 2.17 0.0 0.0
    dihedral_coeff 555  0.0 7.25 0.0 0.0
    dihedral_coeff 556  0.0 7.25 0.0 0.0
    dihedral_coeff 557  0.0 7.25 0.0 0.0
    dihedral_coeff 558  0.0 2.17 0.0 0.0
    dihedral_coeff 559  0.0 2.17 0.0 0.0
    dihedral_coeff 560  0.0 0.0 0.0 0.0
    dihedral_coeff 561  0.0 0.0 0.0 0.0
    dihedral_coeff 562  0.0 7.25 0.0 0.0
    dihedral_coeff 563  0.0 7.25 0.0 0.0
    dihedral_coeff 564  0.0 7.25 0.0 0.0
    dihedral_coeff 565  0.0 7.25 0.0 0.0
    dihedral_coeff 566  0.0 7.25 0.0 0.0
    dihedral_coeff 567  0.0 7.25 0.0 0.0
    dihedral_coeff 568  0.0 7.25 0.0 0.0
    dihedral_coeff 569  0.0 7.25 0.0 0.0
    dihedral_coeff 570  0.0 7.25 0.0 0.0
    dihedral_coeff 571  0.0 7.25 0.0 0.0
    dihedral_coeff 572  0.0 7.25 0.0 0.0
    dihedral_coeff 573  0.0 7.25 0.0 0.0
    dihedral_coeff 574  0.0 7.25 0.0 0.0
    dihedral_coeff 575  0.0 7.25 0.0 0.0
    dihedral_coeff 576  0.0 7.25 0.0 0.0
    dihedral_coeff 577  0.0 7.25 0.0 0.0
    dihedral_coeff 578  0.0 7.25 0.0 0.0
    dihedral_coeff 579  0.0 1.62 0.0 -0.44
    dihedral_coeff 580  0.0 7.25 0.0 0.0
    dihedral_coeff 581  0.0 7.25 0.0 0.0
    dihedral_coeff 582  0.0 7.25 0.0 0.0
    dihedral_coeff 583  0.0 7.25 0.0 0.0
    dihedral_coeff 584  0.0 7.25 0.0 0.0
    dihedral_coeff 585  0.0 7.25 0.0 0.0
    dihedral_coeff 586  0.0 7.25 0.0 0.0
    dihedral_coeff 587  0.0 7.25 0.0 0.0
    dihedral_coeff 588  0.0 7.25 0.0 0.0
    dihedral_coeff 589  0.0 7.25 0.0 0.0
    dihedral_coeff 590  0.0 7.25 0.0 0.0
    dihedral_coeff 591  0.0 7.25 0.0 0.0
    dihedral_coeff 592  0.0 7.25 0.0 0.0
    dihedral_coeff 593  0.0 0.0 -0.372 0.0
    dihedral_coeff 594  1.241 3.353 -0.286 0.0
    dihedral_coeff 595  0.0 0.0 -0.372 0.0
    dihedral_coeff 596  1.241 3.353 -0.286 0.0
    dihedral_coeff 597  0.0 0.0 0.0 0.0
    dihedral_coeff 598  0.0 0.0 0.0 0.0
    dihedral_coeff 599  0.0 2.03 0.0 0.0
    dihedral_coeff 600  0.0 3.9 0.0 0.0
    dihedral_coeff 601  0.0 7.936 0.0 0.0
    dihedral_coeff 602  0.0 3.9 0.0 0.0
    dihedral_coeff 603  0.0 2.03 0.0 0.0
    dihedral_coeff 604  0.0 7.25 0.0 0.0
    dihedral_coeff 605  0.0 7.25 0.0 0.0
    dihedral_coeff 606  0.0 7.25 0.0 0.0
    dihedral_coeff 607  0.0 7.0 0.0 0.0
    dihedral_coeff 608  0.0 0.0 0.0 0.0
    dihedral_coeff 609  0.0 -0.9 0.0 0.0
    dihedral_coeff 610  1.656 -0.768 -0.117 0.0
    dihedral_coeff 611  0.0 7.25 0.0 0.0
    dihedral_coeff 612  0.0 7.25 0.0 0.0
    dihedral_coeff 613  0.0 7.25 0.0 0.0
    dihedral_coeff 614  0.0 7.25 0.0 0.0
    dihedral_coeff 615  0.0 7.25 0.0 0.0
    dihedral_coeff 616  0.0 7.25 0.0 0.0
    dihedral_coeff 617  0.0 7.25 0.0 0.0
    dihedral_coeff 618  0.0 7.25 0.0 0.0
    dihedral_coeff 619  0.0 7.25 0.0 0.0
    dihedral_coeff 620  0.0 3.651 0.0 0.0
    dihedral_coeff 621  0.0 1.15 0.0 0.0
    dihedral_coeff 622  0.205 -0.531 0.0 0.0
    dihedral_coeff 623  0.0 0.0 -0.372 0.0
    dihedral_coeff 624  1.241 3.353 -0.286 0.0
    dihedral_coeff 625  0.0 7.25 0.0 0.0
    dihedral_coeff 626  0.0 7.25 0.0 0.0
    dihedral_coeff 627  0.0 0.0 0.3 0.0
    dihedral_coeff 628  0.0 0.0 0.3 0.0
    dihedral_coeff 629  0.0 0.0 -0.372 0.0
    dihedral_coeff 630  0.0 0.0 0.3 0.0
    dihedral_coeff 631  0.0 0.0 -0.372 0.0
    dihedral_coeff 632  1.423 4.055 0.858 0.0
    dihedral_coeff 633  0.0 0.0 0.3 0.0
    dihedral_coeff 634  0.0 0.0 -0.372 0.0
    dihedral_coeff 635  0.0 0.0 0.3 0.0
    dihedral_coeff 636  0.0 0.0 0.3 0.0
    dihedral_coeff 637  0.0 0.0 -0.372 0.0
    dihedral_coeff 638  0.0 0.0 -0.372 0.0
    dihedral_coeff 639  0.0 0.0 -0.372 0.0
    dihedral_coeff 640  1.423 4.055 0.858 0.0
    dihedral_coeff 641  0.0 2.1 0.0 0.0
    dihedral_coeff 642  0.0 2.1 0.0 0.0
    dihedral_coeff 643  0.0 2.03 0.0 0.0
    dihedral_coeff 644  0.0 7.25 0.0 0.0
    dihedral_coeff 645  0.0 7.25 0.0 0.0
    dihedral_coeff 646  0.0 7.25 0.0 0.0
    dihedral_coeff 647  0.0 7.25 0.0 0.0
    dihedral_coeff 648  0.0 7.25 0.0 0.0
    dihedral_coeff 649  0.0 7.25 0.0 0.0
    dihedral_coeff 650  0.0 10.0 0.0 0.0
    dihedral_coeff 651  0.0 7.25 0.0 0.0
    dihedral_coeff 652  0.0 7.25 0.0 0.0
    dihedral_coeff 653  0.0 7.25 0.0 0.0
    dihedral_coeff 654  0.0 7.25 0.0 0.0
    dihedral_coeff 655  0.0 5.0 0.0 0.0
    dihedral_coeff 656  0.0 10.0 0.0 0.0
    dihedral_coeff 657  0.0 10.0 0.0 0.0
    dihedral_coeff 658  0.0 3.05 0.0 0.0
    dihedral_coeff 659  0.0 4.65 0.0 0.0
    dihedral_coeff 660  0.0 10.0 0.0 0.0
    dihedral_coeff 661  0.0 5.0 0.0 0.0
    dihedral_coeff 662  0.0 2.8 0.0 0.0
    dihedral_coeff 663  0.0 5.0 0.0 0.0
    dihedral_coeff 664  0.0 2.17 0.0 0.0
    dihedral_coeff 665  0.0 2.17 0.0 0.0
    dihedral_coeff 666  0.0 7.25 0.0 0.0
    dihedral_coeff 667  0.0 7.25 0.0 0.0
    dihedral_coeff 668  0.0 3.35 0.0 0.0
    dihedral_coeff 669  0.0 6.0 0.0 0.0
    dihedral_coeff 670  0.0 7.25 0.0 0.0
    dihedral_coeff 671  0.0 7.25 0.0 0.0
    dihedral_coeff 672  0.0 7.25 0.0 0.0
    dihedral_coeff 673  0.0 10.0 0.0 0.0
    dihedral_coeff 674  0.0 10.0 0.0 0.0
    dihedral_coeff 675  0.0 7.25 0.0 0.0
    dihedral_coeff 676  0.0 10.0 0.0 0.0
    dihedral_coeff 677  0.0 7.25 0.0 0.0
    dihedral_coeff 678  0.0 7.25 0.0 0.0
    dihedral_coeff 679  0.0 7.25 0.0 0.0
    dihedral_coeff 680  0.0 4.8 0.0 0.0
    dihedral_coeff 681  0.0 7.25 0.0 0.0
    dihedral_coeff 682  0.0 7.25 0.0 0.0
    dihedral_coeff 683  0.0 10.0 0.0 0.0
    dihedral_coeff 684  0.0 7.25 0.0 0.0
    dihedral_coeff 685  0.0 7.25 0.0 0.0
    dihedral_coeff 686  0.0 13.05 0.0 0.0
    dihedral_coeff 687  0.0 2.17 0.0 0.0
    dihedral_coeff 688  0.0 2.17 0.0 0.0
    dihedral_coeff 689  0.0 2.17 0.0 0.0
    dihedral_coeff 690  0.0 2.17 0.0 0.0
    dihedral_coeff 691  0.0 2.17 0.0 0.0
    dihedral_coeff 692  0.0 7.25 0.0 0.0
    dihedral_coeff 693  0.0 10.75 0.0 0.0
    dihedral_coeff 694  0.0 10.75 0.0 0.0
    dihedral_coeff 695  0.0 10.75 0.0 0.0
    dihedral_coeff 696  0.0 10.75 0.0 0.0
    dihedral_coeff 697  0.0 10.75 0.0 0.0
    dihedral_coeff 698  0.0 7.25 0.0 0.0
    dihedral_coeff 699  0.0 7.25 0.0 0.0
    dihedral_coeff 700  0.0 7.25 0.0 0.0
    dihedral_coeff 701  0.0 2.17 0.0 0.0
    dihedral_coeff 702  0.0 2.17 0.0 0.0
    dihedral_coeff 703  0.0 2.17 0.0 0.0
    dihedral_coeff 704  0.0 2.17 0.0 0.0
    dihedral_coeff 705  0.0 10.75 0.0 0.0
    dihedral_coeff 706  0.0 10.75 0.0 0.0
    dihedral_coeff 707  0.0 10.75 0.0 0.0
    dihedral_coeff 708  0.0 10.75 0.0 0.0
    dihedral_coeff 709  0.0 2.17 0.0 0.0
    dihedral_coeff 710  0.0 2.17 0.0 0.0
    dihedral_coeff 711  0.0 2.17 0.0 0.0
    dihedral_coeff 712  0.0 2.17 0.0 0.0
    dihedral_coeff 713  0.0 7.25 0.0 0.0
    dihedral_coeff 714  0.0 7.25 0.0 0.0
    dihedral_coeff 715  0.0 7.25 0.0 0.0
    dihedral_coeff 716  0.0 7.25 0.0 0.0
    dihedral_coeff 717  0.0 10.75 0.0 0.0
    dihedral_coeff 718  0.0 7.25 0.0 0.0
    dihedral_coeff 719  0.0 7.25 0.0 0.0
    dihedral_coeff 720  0.0 7.25 0.0 0.0
    dihedral_coeff 721  0.0 7.25 0.0 0.0
    dihedral_coeff 722  0.0 2.17 0.0 0.0
    dihedral_coeff 723  0.0 2.17 0.0 0.0
    dihedral_coeff 724  0.0 2.17 0.0 0.0
    dihedral_coeff 725  0.0 2.17 0.0 0.0
    dihedral_coeff 726  0.0 2.17 0.0 0.0
    dihedral_coeff 727  0.0 2.17 0.0 0.0
    dihedral_coeff 728  0.0 2.17 0.0 0.0
    dihedral_coeff 729  0.0 2.17 0.0 0.0
    dihedral_coeff 730  0.0 2.17 0.0 0.0
    dihedral_coeff 731  0.0 7.25 0.0 0.0
    dihedral_coeff 732  0.0 6.089 0.0 0.0
    dihedral_coeff 733  0.0 4.9 0.0 0.0
    dihedral_coeff 734  0.0 6.089 0.0 0.0
    dihedral_coeff 735  0.0 20.0 0.0 0.0
    dihedral_coeff 736  2.3 6.089 0.0 0.0
    dihedral_coeff 737  0.0 4.9 0.0 0.0
    dihedral_coeff 738  2.3 6.089 0.0 0.0
    dihedral_coeff 739  2.3 6.089 0.0 0.0
    dihedral_coeff 740  0.0 0.0 0.0 0.0
    dihedral_coeff 741  0.0 0.0 0.0 0.0
    dihedral_coeff 742  0.0 0.0 0.0 0.0
    dihedral_coeff 743  0.0 0.0 0.0 0.0
    dihedral_coeff 744  0.0 0.0 0.0 0.0
    dihedral_coeff 745  0.0 0.0 0.0 0.0
    dihedral_coeff 746  0.0 0.0 0.0 0.0
    dihedral_coeff 747  0.0 0.0 0.0 0.0
    dihedral_coeff 748  0.0 0.0 0.0 0.0
    dihedral_coeff 749  0.0 0.0 0.0 0.0
    dihedral_coeff 750  0.0 0.0 0.0 0.0
    dihedral_coeff 751  0.0 0.0 0.0 0.0
    dihedral_coeff 752  0.0 0.0 0.0 0.0
    dihedral_coeff 753  0.0 0.0 0.0 0.0
    dihedral_coeff 754  0.0 0.0 0.0 0.0
    dihedral_coeff 755  0.0 14.0 0.0 0.0
    dihedral_coeff 756  0.0 14.0 0.0 0.0
    dihedral_coeff 757  0.0 14.0 0.0 0.0
    dihedral_coeff 758  0.0 14.0 0.0 0.0
    dihedral_coeff 759  0.0 14.0 0.0 0.0
    dihedral_coeff 760  0.0 14.0 0.0 0.0
    dihedral_coeff 761  0.0 14.0 0.0 0.0
    dihedral_coeff 762  0.0 14.0 0.0 0.0
    dihedral_coeff 763  0.0 14.0 0.0 0.0
    dihedral_coeff 764  0.0 14.0 0.0 0.0
    dihedral_coeff 765  0.0 14.0 0.0 0.0
    dihedral_coeff 766  0.0 14.0 0.0 0.0
    dihedral_coeff 767  0.0 14.0 0.0 0.0
    dihedral_coeff 768  0.0 14.0 0.0 0.0
    dihedral_coeff 769  0.0 14.0 0.0 0.0
    dihedral_coeff 770  1.423 4.055 0.858 0.0
    dihedral_coeff 771  1.816 1.222 1.581 0.0
    dihedral_coeff 772  0.0 0.82 0.0 0.0
    dihedral_coeff 773  1.0 0.0 0.0 0.0
    dihedral_coeff 774  -1.697 -0.456 0.585 0.0
    dihedral_coeff 775  -1.697 -0.456 0.585 0.0
    dihedral_coeff 776  -1.697 -0.456 0.585 0.0
    dihedral_coeff 777  6.28 -1.467 2.03 0.0
    dihedral_coeff 778  1.428 0.086 0.029 0.0
    dihedral_coeff 779  1.428 0.086 0.029 0.0
    dihedral_coeff 780  2.732 -0.229 0.485 0.0
    dihedral_coeff 781  0.845 -0.962 0.713 0.0
    dihedral_coeff 782  1.0 0.0 0.0 0.0
    dihedral_coeff 783  0.845 -0.962 0.713 0.0
    dihedral_coeff 784  1.0 0.0 0.0 0.0
    dihedral_coeff 785  0.845 -0.962 0.713 0.0
    dihedral_coeff 786  0.0 0.0 0.462 0.0
    dihedral_coeff 787  1.0 0.0 0.0 0.0
    dihedral_coeff 788  1.438 -0.124 0.264 0.0
    dihedral_coeff 789  0.0 0.0 0.347 0.0
    dihedral_coeff 790  0.0 0.0 0.347 0.0
    dihedral_coeff 791  0.0 0.0 0.0 0.0
    dihedral_coeff 792  0.0 0.0 0.0 0.0
    dihedral_coeff 793  1.7 -0.6 0.0 0.0
    dihedral_coeff 794  0.0 0.0 0.0 0.0
    dihedral_coeff 795  0.0 3.9 0.0 0.0
    dihedral_coeff 796  0.0 7.25 0.0 0.0
    dihedral_coeff 797  0.0 5.0 0.0 0.0
    dihedral_coeff 798  0.0 10.75 0.0 0.0
    dihedral_coeff 799  1.3 -0.05 0.2 0.0
    dihedral_coeff 800  1.3 -0.05 0.2 0.0
    # The following force field parameters were converted from
    # the tinker parameter file (oplsaa.prm) and then edited by hand:
    # Thanks to David Huang (adelaide.edu.au) for the corrections:

    improper_coeff 1  10.5 180.0  # (moltemplate)
    # <==> "imptors 0 0 3 4  21.000 180.0 2" in oplsaa.prm (tinker)
    # <==> "define improper_O_C_X_Y 180.0 43.93200 2" in oplsaa.ff (gromacs)

    improper_coeff 2  10.5 180.0  # (moltemplate)
    # <==> "imptors 0 0 3 52  21.000 180.0 2" in oplsaa.prm (tinker)
    # <==> "define improper_O_C_X_Y 180.0 43.93200 2" in oplsaa.ff (gromacs)

    improper_coeff 3  1.0 180.0  # (moltemplate)
    # <==> "imptors 0 0 24 0  5.000 180.0 2" in oplsaa.prm (tinker) - INCORRECT?
    # <==> "define improper_Z_N_X_Y 180.0 4.18400 2" in oplsaa.ff (gromacs)

    improper_coeff 4  15.0 180.0  # (moltemplate)
    # <==> "imptors 0 0 47 0  30.000 180.0 2" in oplsaa.prm (tinker)
    # <==> "define improper_Z_CM_X_Y 180.0 62.76000 2" in oplsaa.ff (gromacs)

    improper_coeff 5  1.1 180.0  # (moltemplate)
    # <==> "imptors 0 0 48 0  5.000 180.0 2" in oplsaa.prm (tinker) - INCORRECT?
    # <==> "define improper_Z_CA_X_Y 180.0 4.60240 2" in oplsaa.ff (gromacs)

    improper_coeff 6  10.5 180.0
    # <==> "define improper_N2_X_N2_N2 180.0 43.93200" in oplsaa.ff (gromacs)
    # <==> no corresponding line found in oplsaa.prm (tinker)

    # --- As of 2017-9-13, I am unsure if I should add this rule: ----
    # The gromacs file for oplsaa include the following line:
    # "define improper_X_NO_ON_NO 180.0 43.93200" in oplsaa.ff (gromacs)
    # but there is no corresponding line found in oplsaa.prm (tinker)
    # and there is no corresponding line from opls-a.prm (emc (BASF))
    # I'm not sure what the "NO" and "ON" correspond to.  If I had to guess,
    # the corresponding moltemplate line might be one of these two choices:
    # improper_coeff @improper:X_103_102_102  10.5 180.0  ?
    # improper_coeff @improper:X_102_103_103  10.5 180.0  ?
    # but I'd prefer to leave this out.


# ------------------------------- Run Section -------------------------------


# -- minimization protocol --

minimize 1.0e-4 1.0e-6 100000 400000
WARNING: Using 'neigh_modify every 1 delay 0 check yes' setting during minimization (../min.cpp:188)
PPPM initialization ...
WARNING: System is not charge neutral, net charge = 216.00000 (../kspace.cpp:325)
  using 12-bit tables for long-range coulomb (../kspace.cpp:340)
  G vector (1/distance) = 0.21210274
  grid = 16 16 16
  stencil order = 5
  estimated absolute RMS force accuracy = 0.029344191
  estimated relative force accuracy = 8.836916e-05
  using double precision KISS FFT
  3d grid and FFT values/proc = 9261 4096
Neighbor list info ...
  update every 1 steps, delay 0 steps, check yes
  max neighbors/atom: 2000, page size: 100000
  master list distance cutoff = 13
  ghost atom cutoff = 13
  binsize = 6.5, bins = 8 8 8
  1 neighbor lists, perpetual/occasional/extra = 1 0 0
  (1) pair lj/cut/coul/long, perpetual
      attributes: half, newton on
      pair build: half/bin/newton
      stencil: half/bin/3d
      bin: standard
Per MPI rank memory allocation (min/avg/max) = 12.59 | 12.59 | 12.59 Mbytes
Step Temp E_pair E_mol TotEng Press 
       0            0   -11505.466    233720.19    222214.72   -161943.82 
     116            0   -18550.408     701.9775    -17848.43    741.78835 
Loop time of 1.01138 on 1 procs for 116 steps with 2160 atoms

100.0% CPU use with 1 MPI tasks x no OpenMP threads

Minimization stats:
  Stopping criterion = energy tolerance
  Energy initial, next-to-last, final = 
      222214.723989069  -17847.1273738164  -17848.4300304114
  Force two-norm initial, final = 25900.217 48.930619
  Force max component initial, final = 827.04708 1.9264023
  Final line search alpha, max atom move = 0.026279270 0.050624445
  Iterations, force evaluations = 116 192

MPI task timing breakdown:
Section |  min time  |  avg time  |  max time  |%varavg| %total
---------------------------------------------------------------
Pair    | 0.62024    | 0.62024    | 0.62024    |   0.0 | 61.33
Bond    | 0.13844    | 0.13844    | 0.13844    |   0.0 | 13.69
Kspace  | 0.2146     | 0.2146     | 0.2146     |   0.0 | 21.22
Neigh   | 0.026094   | 0.026094   | 0.026094   |   0.0 |  2.58
Comm    | 0.0047708  | 0.0047708  | 0.0047708  |   0.0 |  0.47
Output  | 0          | 0          | 0          |   0.0 |  0.00
Modify  | 0          | 0          | 0          |   0.0 |  0.00
Other   |            | 0.007244   |            |       |  0.72

Nlocal:        2160.00 ave        2160 max        2160 min
Histogram: 1 0 0 0 0 0 0 0 0 0
Nghost:        5130.00 ave        5130 max        5130 min
Histogram: 1 0 0 0 0 0 0 0 0 0
Neighs:        204304.0 ave      204304 max      204304 min
Histogram: 1 0 0 0 0 0 0 0 0 0

Total # of neighbors = 204304
Ave neighs/atom = 94.585185
Ave special neighs/atom = 6.6000000
Neighbor list builds = 5
Dangerous builds = 0

# -- simulation protocol --

timestep        1.0

print "---------------------------------------------------------------------------"
---------------------------------------------------------------------------
print "First, use Langevin dynamics to randomize the initial shape of the molecules"
First, use Langevin dynamics to randomize the initial shape of the molecules
print "(This is not really necessary, but it seems to speed up equilibration.)"
(This is not really necessary, but it seems to speed up equilibration.)
print "---------------------------------------------------------------------------"
---------------------------------------------------------------------------

fix fxlan all langevin  300.0 300.0  100  123456  # temp: 300 K
fix fxnph all nph  iso 50.0 50.0 1000.0   # pressure: 50 barr
velocity all create 300.0 12345
run 2000
PPPM initialization ...
  using 12-bit tables for long-range coulomb (../kspace.cpp:340)
  G vector (1/distance) = 0.21210274
  grid = 16 16 16
  stencil order = 5
  estimated absolute RMS force accuracy = 0.029344191
  estimated relative force accuracy = 8.836916e-05
  using double precision KISS FFT
  3d grid and FFT values/proc = 9261 4096
Per MPI rank memory allocation (min/avg/max) = 11.46 | 11.46 | 11.46 Mbytes
Step Temp E_pair E_mol TotEng Press Volume 
     116          300   -18550.408     701.9775   -15917.759    1539.8149       110592 
    2116    300.86861   -16847.746    2142.5283   -12768.957   -100.62263    169519.37 
Loop time of 9.01812 on 1 procs for 2000 steps with 2160 atoms

Performance: 19.161 ns/day, 1.253 hours/ns, 221.776 timesteps/s
99.7% CPU use with 1 MPI tasks x no OpenMP threads

MPI task timing breakdown:
Section |  min time  |  avg time  |  max time  |%varavg| %total
---------------------------------------------------------------
Pair    | 3.7344     | 3.7344     | 3.7344     |   0.0 | 41.41
Bond    | 1.5755     | 1.5755     | 1.5755     |   0.0 | 17.47
Kspace  | 2.2537     | 2.2537     | 2.2537     |   0.0 | 24.99
Neigh   | 0.23486    | 0.23486    | 0.23486    |   0.0 |  2.60
Comm    | 0.051131   | 0.051131   | 0.051131   |   0.0 |  0.57
Output  | 2.408e-05  | 2.408e-05  | 2.408e-05  |   0.0 |  0.00
Modify  | 1.1493     | 1.1493     | 1.1493     |   0.0 | 12.74
Other   |            | 0.01912    |            |       |  0.21

Nlocal:        2160.00 ave        2160 max        2160 min
Histogram: 1 0 0 0 0 0 0 0 0 0
Nghost:        5055.00 ave        5055 max        5055 min
Histogram: 1 0 0 0 0 0 0 0 0 0
Neighs:        132046.0 ave      132046 max      132046 min
Histogram: 1 0 0 0 0 0 0 0 0 0

Total # of neighbors = 132046
Ave neighs/atom = 61.132407
Ave special neighs/atom = 6.6000000
Neighbor list builds = 51
Dangerous builds = 0
unfix fxlan
unfix fxnph

print "---------------------------------------------------------------------------"
---------------------------------------------------------------------------
print "--- Now continue the simulation using a Nose-Hoover Thermostat/Barostat ---"
--- Now continue the simulation using a Nose-Hoover Thermostat/Barostat ---
print "---------------------------------------------------------------------------"
---------------------------------------------------------------------------
dump            1 all custom 1000 traj_npt.lammpstrj id mol type x y z ix iy iz
# temperature: 300 K, pressure: 50 barr
fix             fxnpt all npt temp 300.0 300.0 100.0 iso 50.0 50.0 100.0 drag 1.0
thermo          100
#thermo_modify  flush yes

run             100000
PPPM initialization ...
  using 12-bit tables for long-range coulomb (../kspace.cpp:340)
  G vector (1/distance) = 0.21004428
  grid = 18 18 18
  stencil order = 5
  estimated absolute RMS force accuracy = 0.026334781
  estimated relative force accuracy = 7.9306411e-05
  using double precision KISS FFT
  3d grid and FFT values/proc = 12167 5832
Per MPI rank memory allocation (min/avg/max) = 11.72 | 11.72 | 11.72 Mbytes
Step Temp E_pair E_mol TotEng Press Volume 
    2116    300.86861   -16840.189    2142.5283     -12761.4   -84.636498    169519.37 
    2200    305.01364   -16683.572    2104.5639   -12616.071    112.03527    179488.69 
    2300    299.74705   -16381.741    2100.4401   -12352.258    169.53203    200503.03 
    2400    300.16994     -16294.4    2098.2789   -12264.356   -36.403095    207657.59 
    2500    302.05834   -16347.944    2112.5911   -12291.436    156.38775    204479.77 
    2600    304.83127     -16389.1    2111.5195   -12315.818   -74.804995    202237.55 
    2700    301.49257     -16398.9    2123.6325   -12334.991    101.82476    201929.68 
    2800    298.48617   -16403.048    2122.1384   -12359.982    44.806504     201372.5 
    2900    299.86027   -16419.265    2110.2984   -12379.195    85.819735    200884.57 
    3000    296.54644   -16409.691    2132.1675   -12369.078   -93.897142    200952.86 
    3100    304.20696   -16433.812    2087.4933   -12388.574    218.15613    198875.81 
    3200    297.64456   -16484.318    2157.5949   -12411.211    1.0756075    196446.64 
    3300    301.90991   -16426.245    2081.8572   -12401.425    217.88708    197624.27 
    3400    301.77988   -16391.406    2090.7383   -12358.542     51.88587    200678.46 
    3500    300.40817   -16378.989    2107.9377   -12337.754   -103.38688    201433.24 
    3600    300.55444   -16443.539    2144.9512   -12364.349    52.757509     198957.4 
    3700    305.89007   -16479.733    2090.1165    -12421.04    118.15138    196484.32 
    3800    306.58937   -16451.678     2059.208   -12419.393    72.329642    197916.24 
    3900    292.55064    -16436.65    2141.4104    -12412.51   -107.63823    198074.89 
    4000    293.89117   -16487.256    2157.1165   -12438.783    49.973421    195300.15 
    4100    301.01214   -16480.763    2101.2507   -12442.328    16.860135    195189.16 
    4200    300.18518   -16459.802     2092.326   -12435.613    97.294496     195256.9 
    4300    296.53578   -16487.024    2131.7887   -12446.859    73.339113    194080.95 
    4400    303.19718    -16472.75    2092.2179   -12429.285    28.687326    195582.47 
    4500     304.8006   -16482.616    2098.2959   -12422.755   -9.8337802    196645.98 
    4600    300.45698   -16460.459     2103.866   -12422.981    152.24013    197024.27 
    4700     303.6367   -16450.837    2077.6622     -12419.1   -12.241673    197251.15 
    4800      296.901   -16471.318    2142.2121   -12418.379    124.94239    197148.23 
    4900    302.67007   -16481.186     2114.025   -12419.307   -146.82735    196837.31 
    5000    296.93183   -16431.749    2117.6671   -12403.156    63.838678    197805.48 
    5100    294.34229   -16386.489    2147.7653   -12344.464   -27.667449    201810.18 
    5200    304.81835   -16429.273    2091.5938       -12376     242.2483    199956.71 
    5300    302.55023   -16496.795    2104.7274   -12444.985   -38.959761    195629.98 
    5400    303.14746   -16491.988     2091.009   -12450.053    26.731855    195719.54 
    5500     301.3872   -16443.995    2092.0811   -12412.316   -28.775882    198852.95 
    5600    292.45184   -16457.102    2141.7538   -12433.254    186.97285    197068.91 
    5700    302.40039   -16505.643    2090.3741   -12469.151     122.2875    194142.44 
    5800    302.65398    -16493.17     2083.928   -12461.491   -8.6482039     194979.2 
    5900    303.13852   -16486.073    2099.6319   -12435.573   -47.317243    197289.78 
    6000    296.10441   -16429.791    2123.5844   -12400.606     24.23848    199892.94 
    6100    303.18345   -16446.626    2086.7184   -12408.749    228.46157    198951.59 
    6200    306.69521   -16442.592    2052.0745   -12416.759    44.967859    198553.05 
    6300    296.85596   -16464.725    2138.7501   -12415.537   -88.408328    198694.59 
    6400    299.82268    -16463.04    2114.8175   -12418.693    34.467482    198540.81 
    6500    301.37773   -16433.815    2063.5972   -12430.681    26.333282     197732.8 
    6600    298.95863   -16464.969    2124.7724   -12416.228    65.584128    198049.09 
    6700    293.36931   -16420.919    2123.2646   -12409.656  0.016471029     197959.1 
    6800    297.17335   -16483.387    2136.0082   -12434.899   -30.599957    195492.51 
    6900    301.72227   -16529.565    2098.2242   -12489.587     57.53524    192615.95 
    7000    311.48052   -16526.739    2053.1371   -12469.047   -29.462939    194380.56 
    7100    295.29378    -16479.13     2122.259   -12456.487    163.57179    195476.71 
    7200    299.56678    -16449.18    2106.7337   -12414.563    59.064636    197325.13 
    7300    303.14257   -16465.069    2110.9555   -12403.219   -58.107382    197766.29 
    7400    299.88487   -16472.839     2118.718   -12424.191   -144.57392    197012.89 
    7500    300.97763     -16446.6    2086.6999   -12422.938    132.17682    197782.53 
    7600    295.52562   -16406.835    2103.0644   -12401.895    -30.02674    198603.35 
    7700     292.7869   -16451.952    2148.9931   -12418.708    57.160263    196038.87 
    7800    301.79359   -16492.699    2106.0101   -12444.476    32.260642    193898.36 
    7900    303.98374   -16501.057    2096.1456   -12448.603    93.653869    194225.84 
    8000    302.41549   -16516.999    2099.8041   -12470.979    113.91432    193994.98 
    8100    301.95082   -16512.845    2083.6079   -12486.012    63.262378    193272.48 
    8200    300.47251   -16513.917     2121.738   -12458.467    52.911434    195412.81 
    8300    305.65124   -16474.895    2045.6125   -12462.243    32.814506    195324.23 
    8400    296.19928   -16490.555    2122.5139   -12461.831    72.070601    195107.96 
    8500    302.01094   -16485.442    2070.0193   -12471.811   -14.048094    194639.87 
    8600    300.07954   -16487.996    2089.7502   -12467.063    102.59003    194630.75 
    8700     299.9506   -16504.159    2108.3174   -12465.489   -46.640414    194601.12 
    8800    308.68737   -16488.504    2037.2472   -12464.678    63.318445    194296.03 
    8900    300.98023   -16526.768    2120.9331   -12468.856    9.2057866    194322.31 
    9000    296.81038   -16485.321    2119.8121   -12455.365    145.97129    195929.07 
    9100    305.05102   -16487.225    2079.0126   -12445.036   -44.788429    197131.17 
    9200    299.43464   -16504.264    2087.9273   -12489.304    98.718116     194070.8 
    9300    298.33311   -16502.183    2103.1766   -12479.063     40.13028    194099.54 
    9400    293.64925   -16466.348    2129.2788   -12447.269    93.110034    195650.72 
    9500    306.93616    -16458.81    2054.5513    -12428.95    40.860461     196560.1 
    9600    303.09436   -16463.754    2094.1001   -12419.069    114.90242    197484.11 
    9700    300.21909     -16445.1    2104.0084   -12409.011     45.81095    198782.83 
    9800    294.05981    -16425.54    2122.5616   -12410.536    -54.45126    198686.06 
    9900    296.89762   -16423.268    2103.7883   -12408.774    43.749505    197582.94 
   10000    301.63686   -16425.222     2088.375   -12395.642    58.186149    197790.54 
   10100    303.26019   -16467.359     2113.569   -12402.139    139.85016    196768.01 
   10200    300.07523   -16490.959     2117.405   -12442.399   -116.60309    194907.49 
   10300     309.1242   -16513.454    2055.7288   -12468.335    95.707875       193885 
   10400     308.9705   -16461.477    2012.3387   -12460.737    57.720674    194801.82 
   10500    301.21174   -16463.945    2092.8102   -12432.666    171.75122    196614.64 
   10600    300.84094   -16465.929      2098.26   -12431.587   -2.1352474    196726.06 
   10700    295.38624   -16469.461    2127.1302   -12441.353   -30.251307    196387.25 
   10800    300.77786     -16469.2    2077.2622   -12456.261    31.672795    195517.38 
   10900     304.6327   -16464.589    2064.5971   -12439.507    134.48564    195752.57 
   11000    297.06672   -16427.806    2122.3593   -12393.653   -54.063646    198161.31 
   11100    297.12473   -16412.788    2117.9105    -12382.71    89.839351    199041.55 
   11200    301.56457   -16461.818    2099.0619   -12422.017    80.802259    197968.21 
   11300    299.22961   -16471.945    2084.6781   -12461.554    100.02379    196399.58 
   11400    294.61175   -16494.931    2120.0011   -12478.936    23.464279    195430.55 
   11500    302.46297   -16491.311    2092.7925   -12451.997    14.284731    197082.85 
   11600    302.06673   -16447.087    2058.7037   -12444.412     48.42087     197657.5 
   11700    295.37678   -16469.081    2117.7257   -12450.437   -31.943972    196551.28 
   11800    297.00506   -16488.064     2095.277   -12481.391    31.094043    193993.72 
   11900    302.68773    -16477.64    2066.6642   -12463.008    141.21985    195068.93 
   12000    298.19657   -16411.473    2089.8738   -12402.534     69.40394    199538.86 
   12100    302.78604   -16411.526    2083.7052    -12379.22   -49.623112    201142.35 
   12200    302.92721   -16439.396    2078.3915   -12411.496    58.188099    198453.05 
   12300    296.50651   -16457.527     2106.858   -12442.481    103.23744    195694.32 
   12400    297.98376   -16417.107    2101.1221    -12398.29   -24.593982    198440.77 
   12500    297.01736   -16400.229    2106.4561   -12382.297    14.794629    199370.88 
   12600    307.41553   -16487.871    2084.1393   -12425.338    81.235544     196472.7 
   12700    299.64167   -16483.644    2091.0763   -12464.204    105.17084     194961.4 
   12800    297.63815   -16490.327    2098.7982   -12476.058    157.68567    194877.39 
   12900    296.77309   -16486.151    2100.5449   -12475.703    19.191073    194754.05 
   13000    297.02017    -16456.87    2117.0531   -12428.323    64.512465    197503.66 
   13100    299.70236    -16429.22     2096.242   -12404.222    125.65936    198932.55 
   13200      298.147   -16445.837    2104.7102   -12422.382    15.504326    197500.68 
   13300    298.98276    -16476.03    2106.9335   -12444.972   -14.622912    195573.77 
   13400    303.11723   -16482.945    2073.5185   -12458.694    124.84712    194301.57 
   13500    298.54368   -16494.385    2114.4421   -12458.645    129.87406    194158.65 
   13600     298.5524   -16476.823    2114.7616   -12440.706   -45.812791    195550.28 
   13700    299.09435   -16465.412    2097.8424   -12442.728    162.20456     195392.4 
   13800    297.82878   -16476.546    2120.1185   -12439.729    33.352551    196316.34 
   13900    297.91952   -16465.549    2110.2026   -12438.065    31.134506    197433.65 
   14000    297.05099   -16482.293    2109.0201   -12461.581    9.7874954    196260.51 
   14100    304.59032   -16475.116    2049.0518   -12465.853    65.007177    196016.83 
   14200    298.88759   -16453.613    2091.3461   -12438.755     91.65548    197305.12 
   14300    295.78938   -16402.095    2103.6247   -12394.898     90.81061     199849.2 
   14400     305.4403   -16438.249    2071.3882   -12401.179   -24.699006    198831.01 
   14500    299.30484   -16470.191    2113.3993   -12430.595    122.39505    196922.24 
   14600     297.8624   -16404.952     2097.491   -12390.547     51.81169    200246.48 
   14700     299.6776   -16437.372    2103.8053   -12404.971    122.74392    199339.73 
   14800    294.36508   -16475.109    2129.7339   -12450.969    17.035597    196174.48 
   14900    307.68692   -16506.664    2055.0242   -12471.499  0.010000279    194640.93 
   15000    298.82371   -16473.064    2088.2236    -12461.74     135.8255    195390.52 
   15100    298.10646   -16452.182    2108.8882    -12424.81    74.249628    197726.16 
   15200    302.06028   -16470.919    2083.0203   -12443.969    33.068359    196916.54 
   15300    299.91506    -16490.43    2107.1696   -12453.136    41.829714    196349.67 
   15400    290.95817   -16496.352    2137.2047   -12486.666    68.259689    194003.22 
   15500    292.00423   -16474.546    2143.4881   -12451.844   -64.361094    195913.46 
   15600    302.65007   -16471.025    2081.5389   -12441.761    130.88276    196716.26 
   15700    296.93666   -16465.256    2099.8649   -12454.435     153.9077    196409.41 
   15800    307.98877   -16481.235    2034.6957   -12464.457    70.811169    196313.59 
   15900    292.08391   -16471.566    2121.2955   -12470.544    135.89776    195832.37 
   16000    304.39964   -16454.979    2046.6642    -12449.33    16.577389    196873.94 
   16100    297.19154   -16448.315    2107.8423   -12427.876    67.917374    197923.34 
   16200    295.99036   -16403.298    2095.6333   -12402.798    41.298937    199366.55 
   16300     303.4208   -16448.963    2075.2625   -12421.015   -87.540302    197452.05 
   16400    299.29035   -16468.644    2089.3123   -12453.228    149.21548    194499.06 
   16500    303.09246   -16502.918     2114.909   -12437.436    93.942873    195119.83 
   16600    304.70645   -16473.644    2093.3973   -12419.287    69.934872    197316.35 
   16700    299.57382   -16470.117    2105.2802   -12436.909    38.614356    196990.96 
   16800    295.96674   -16494.955     2106.811    -12483.43    69.872635    194638.73 
   16900    299.66147   -16474.049    2084.3291   -12461.228   -7.3696549    196063.35 
   17000    300.82678   -16445.024    2081.3051   -12427.727    137.80033    197830.12 
   17100    303.28611   -16447.923    2064.7104   -12431.394   -13.367803    197460.41 
   17200    297.77832   -16465.882      2117.38   -12432.129    46.827494    197784.86 
   17300    298.87183   -16458.094    2083.3291   -12451.355    51.999731     197398.2 
   17400    300.52895   -16457.743     2089.807   -12433.861    3.4354012    198979.51 
   17500    298.79913   -16464.045     2097.769   -12443.334    84.689607    198175.62 
   17600    296.62669   -16475.397    2120.1725   -12446.263    86.795817    197959.22 
   17700    298.09461    -16467.96    2085.6852   -12463.866    114.37552    196557.74 
   17800      297.049   -16440.051    2089.5238   -12438.847    20.622513    198004.86 
   17900    299.26545   -16418.933    2085.5337   -12407.456    61.064146     200166.1 
   18000    301.29454   -16434.538    2078.6708   -12416.865     89.93103     199315.3 
   18100    302.52962   -16415.007    2047.2267    -12420.83   -22.476761    198069.71 
   18200    298.83341   -16452.361    2116.9612   -12412.237    26.721975    197534.34 
   18300    299.19592   -16449.462    2115.2406   -12408.725    44.243616    197659.64 
   18400    300.63696   -16432.301    2105.1628   -12392.368    14.192862    199345.48 
   18500    296.75603   -16403.333    2095.1145   -12398.425    26.299883    199232.51 
   18600    299.79053   -16447.886    2110.2933    -12408.27    134.65276    197839.02 
   18700    300.57393       -16459    2106.1874   -12418.448    101.50362    197060.05 
   18800    301.72342   -16431.868     2086.968   -12403.138    137.67361    198056.86 
   18900    302.65054   -16446.819    2091.7492   -12407.342   -88.237078     197685.3 
   19000    299.19666   -16442.333    2115.3946   -12401.437     62.73365     197774.5 
   19100    303.82858   -16427.602    2073.5392   -12398.753    2.3596015    198290.48 
   19200    299.38781   -16447.114    2127.0947   -12393.289   -81.492998    198538.92 
   19300    297.75674   -16442.317    2112.8477   -12413.235    50.191677    197694.86 
   19400    302.37578   -16457.394    2085.2857   -12426.148    210.48176    196781.09 
   19500    295.07034   -16447.505    2116.8517   -12431.708    70.075233    196132.58 
   19600    296.99811   -16463.004    2124.7261   -12426.927    68.119075    195372.19 
   19700    304.87168   -16462.949    2085.1196   -12415.807   -5.9012904    196484.63 
   19800     297.1843    -16461.04     2129.093   -12419.397    82.250536    197005.96 
   19900    297.03712   -16452.629    2097.4042   -12443.622   -37.900845    196344.04 
   20000    299.70023   -16492.361    2112.4337   -12451.186    15.096565    196357.32 
   20100    292.64087   -16438.971    2125.9995   -12429.661    98.164339    197276.88 
   20200    296.24678   -16419.792    2103.3205   -12409.955    42.365522    198051.79 
   20300    303.25121   -16448.959    2078.6757   -12418.689    93.107507    197232.71 
   20400    296.61459   -16433.138     2108.074   -12416.181    95.848404    197762.43 
   20500    297.95834   -16432.332    2109.6425   -12405.158    33.361935    198251.66 
   20600    296.84083   -16466.826    2131.4659    -12425.02   -132.38355    196758.65 
   20700    300.85096   -16533.133     2119.181   -12477.805    143.03857    194051.19 
   20800    298.50169   -16483.643    2093.1634   -12469.452   -16.415726    195655.04 
   20900    305.31806   -16457.554    2057.7083    -12434.95    138.09427    198049.51 
   21000    297.53006   -16456.655    2117.6108   -12424.269     47.11631     198542.6 
   21100    302.22579   -16449.994     2048.752   -12456.247   -52.511073    196620.38 
   21200    297.57999   -16492.125     2107.878   -12469.151    128.01066    195899.84 
   21300    291.51345   -16446.073    2113.1255   -12456.892   -29.709092     197161.5 
   21400     293.2553   -16430.088    2148.1547   -12394.669   -79.314683     200638.5 
   21500    296.96206   -16402.959    2098.6585   -12393.181    122.40658    200222.44 
   21600     297.1876   -16448.882    2127.7495   -12408.561    35.453003    197821.69 
   21700    302.44364   -16437.034    2072.5216   -12418.116    65.266665    196822.79 
   21800    296.08716   -16443.989     2140.689   -12397.811    38.867091       198198 
   21900    304.92906   -16456.589    2088.1002   -12406.097    119.31464    197878.86 
   22000    302.30346   -16434.908    2091.1753   -12398.238   -72.207641    198911.05 
   22100    300.27077   -16452.731    2096.3353   -12423.983     76.90133    197712.77 
   22200    297.40043   -16490.308    2095.5595   -12480.808    90.292033    194044.48 
   22300    296.56821   -16488.992    2106.8569    -12473.55    38.422885    194298.75 
   22400     300.6395   -16480.117    2090.1249   -12455.206    17.297861    194914.27 
   22500    302.42507   -16466.148    2092.6334   -12427.237    93.706871    197324.92 
   22600     300.2022   -16495.521    2090.2055   -12473.344    9.2352471     194482.7 
   22700    304.12021   -16502.412    2057.8769   -12487.349     33.54953       193437 
   22800    298.09217   -16471.441    2091.6125   -12461.435    103.89163     195276.9 
   22900    292.94006   -16412.354    2114.8523   -12412.266   -38.138773    198633.72 
   23000    301.78207   -16419.316    2077.0414   -12400.135    31.867645    198841.64 
   23100    307.29162    -16461.84    2061.6685   -12422.575    99.236967    196462.13 
   23200    301.89287   -16484.168    2111.8422   -12429.473    8.9410879    195966.21 
   23300    300.32981   -16443.645    2088.6068   -12422.245    19.345526       197123 
   23400    297.12437   -16418.644    2115.2274   -12391.252    142.71854    199813.51 
   23500    300.17754   -16438.957    2110.5849   -12396.559    5.1983744       199694 
   23600     301.4803   -16447.275    2094.4403   -12412.637    31.854522    198150.15 
   23700    301.70216    -16480.15    2106.1527   -12432.372    3.8306606    197015.88 
   23800    298.66332    -16458.26    2084.2028   -12451.989    126.02106    196382.57 
   23900    298.38977   -16447.775    2106.2745   -12421.192   -25.745064    198530.25 
   24000    294.97755   -16423.891    2094.7524    -12430.79    168.85532    197684.86 
   24100    307.06909   -16447.854    2045.7265   -12425.963    37.792005    198080.37 
   24200    299.90153   -16461.594     2087.086   -12444.471    47.906708    197761.58 
   24300    303.04216    -16474.38    2063.8503   -12460.281    97.989838    197559.98 
   24400    296.48549   -16471.634     2099.299   -12464.283    113.03419    197631.89 
   24500    298.12088   -16461.243    2092.8325   -12449.833    16.295472    198186.55 
   24600    306.19828   -16455.781     2048.209   -12437.012    69.953834    198769.79 
   24700    302.83973   -16463.597     2074.822   -12439.829    87.409709    197719.57 
   24800    296.18762   -16477.066    2088.2364   -12482.694     7.129145    194728.25 
   24900    299.03667   -16486.085    2080.3455   -12481.269    96.166849    194803.38 
   25000    288.17399   -16475.969    2147.8265   -12473.579    69.133736     194982.5 
   25100    301.13588   -16477.125    2078.6363   -12460.508   -55.331871     195141.8 
   25200    296.09432   -16468.526    2114.1908     -12448.8     165.8895    195359.97 
   25300    303.20231   -16480.819    2094.9842   -12434.555    139.72332    195911.21 
   25400    300.34542   -16482.601    2101.8222   -12447.885   -64.062381    194862.34 
   25500    296.14271   -16509.916    2127.0258   -12477.043    23.332753    193026.04 
   25600    296.51271   -16497.222    2110.6198   -12478.374    81.148514    193163.49 
   25700    303.84037   -16479.384    2084.4805   -12439.517     48.41969    196064.74 
   25800    297.26242   -16456.973    2130.0249   -12413.895    6.1879579    197480.44 
   25900    304.18263   -16468.259    2092.6868   -12417.984      88.0318    197637.42 
   26000    308.60684   -16474.128    2049.4013   -12438.666    45.110793    197388.36 
   26100    302.82823   -16452.957    2039.3631   -12464.722    87.824206    196646.31 
   26200    294.15528   -16469.018    2107.3717   -12468.589    45.820961    196407.33 
   26300    298.11815   -16454.311    2072.3209    -12463.43    123.91861     196586.4 
   26400    300.41643   -16464.641    2098.0124   -12433.278   -64.201752    197717.88 
   26500    298.82592   -16453.786    2082.3332   -12448.338    57.435544    196061.62 
   26600    302.57496   -16475.846    2097.2806   -12431.323   -62.120823    196583.36 
   26700    294.42683   -16457.353    2124.7663   -12437.783    107.19685    196439.56 
   26800    303.71312    -16448.33    2083.7358   -12410.027    167.46176    198215.16 
   26900    306.15126   -16437.284    2064.9053   -12402.121    161.04721    198914.87 
   27000    303.62999   -16453.673    2087.1018    -12412.54   -77.969415    198247.71 
   27100    300.83777   -16473.732     2097.133   -12440.536    69.978758    196810.66 
   27200    295.77637   -16453.128    2091.3897   -12458.249    137.32948     196121.5 
   27300    296.96829   -16450.522    2103.7051   -12435.657    105.78101    197018.84 
   27400    298.94529    -16461.51    2109.8179   -12427.809    74.461556    197661.38 
   27500    301.12341   -16470.895    2089.7966   -12443.198    2.8202137    197688.93 
   27600    300.09087   -16456.197    2085.4122   -12439.529    10.358033    198535.19 
   27700     303.5784   -16451.816    2050.6771   -12447.439    62.996175    197656.24 
   27800    298.68191   -16447.124    2109.7234   -12415.213    124.37641    199429.84 
   27900    302.90584   -16389.606    2060.3967   -12379.837    87.678686    201964.34 
   28000    295.00321    -16397.37    2112.3411   -12386.515    41.692716    201310.99 
   28100    302.04572   -16466.683     2088.988   -12433.859   -35.385827    197468.67 
   28200     303.3136   -16503.782    2066.5007   -12485.285    166.70204    194016.68 
   28300    298.92248   -16496.151    2103.0923   -12469.323    60.204272    195631.55 
   28400    298.47606    -16445.34    2078.7465    -12445.73     51.42868    197614.97 
   28500    302.76037   -16438.422     2083.924   -12406.063   -94.760545    199861.71 
   28600    298.96311   -16456.632    2102.5624   -12430.072     146.4118     197607.3 
   28700    303.96641   -16463.547    2083.6378   -12423.712    22.954655     197620.9 
   28800    305.72397   -16461.464    2064.2833   -12429.673    192.40665    196702.24 
   28900    294.80697   -16453.126     2124.906   -12430.969   -32.009381    196409.33 
   29000    294.83085   -16472.512    2132.4934   -12442.614    46.286817    196248.56 
   29100    300.23946   -16511.447    2111.3402   -12467.895   -17.225906    194923.31 
   29200    299.61368   -16515.729    2105.0655   -12482.479    189.03532     194028.9 
   29300    293.35527   -16512.152    2113.4743    -12510.77     34.97467    192701.85 
   29400    300.20163   -16529.323    2096.7972   -12500.557   -12.974002    193601.65 
   29500    293.52405   -16499.142    2118.1058   -12492.042    20.634452    194199.77 
   29600    294.18926   -16484.105    2130.3301   -12460.499    133.02322     195748.5 
   29700    297.53957   -16474.484     2087.532   -12472.115     86.43172    194826.74 
   29800    300.81138   -16521.341     2115.186   -12470.262    76.106451     194058.8 
   29900    299.02848    -16487.66    2089.5936   -12473.648    23.629072    194281.71 
   30000    305.42208   -16487.022    2076.3998   -12445.058   -37.805765    196064.26 
   30100    296.78309   -16453.592    2129.6439    -12413.98    137.12112    197922.45 
   30200    300.87456   -16420.868    2094.0537   -12390.515   -22.629424    199255.25 
   30300     299.6796   -16447.501    2112.3254   -12406.567     90.22498     198157.4 
   30400    296.71774   -16441.056    2132.8904   -12398.618    -54.97783    198807.43 
   30500    300.11397   -16451.315     2105.705   -12414.206      49.7964     198410.1 
   30600    298.83543    -16472.79    2097.3678   -12452.247    104.75876    195842.34 
   30700    298.49091   -16488.803    2090.0701   -12477.775     154.7217    194093.19 
   30800    305.55528   -16516.258    2076.2911   -12473.544    55.232759    193902.51 
   30900    305.60544   -16495.921    2071.8383   -12457.338    41.027215    195286.26 
   31000    297.56048   -16517.867    2124.3221   -12478.574    -113.3962    194106.46 
   31100    306.76085   -16504.214    2034.6183   -12495.415    228.60918       193225 
   31200    294.64725   -16473.459    2113.6519   -12463.585    21.059144    195264.97 
   31300    295.48569   -16448.124    2107.8783   -12438.628    113.88559    196673.91 
   31400    301.47735   -16465.783    2086.6123   -12438.993   -38.186472    196269.44 
   31500    308.20826   -16489.719    2050.5682   -12455.656    74.716891    195191.59 
   31600     297.2329   -16509.818    2124.2477   -12472.707    100.30962    194178.37 
   31700    300.64523    -16474.71    2078.4104   -12461.476     101.5951    194899.78 
   31800    295.85736   -16461.484    2099.1811   -12458.292    14.357034    195063.27 
   31900     300.6593   -16449.224    2082.4074   -12431.903    84.171432    196839.46 
   32000    297.57153   -16443.743    2114.7808    -12413.92    34.518767    198419.24 
   32100     304.8968    -16450.33    2076.7138   -12411.432    197.55499    198487.13 
   32200    300.55562   -16439.271    2095.4202   -12409.605    92.474897     198596.9 
   32300    302.18501   -16434.591    2084.1961   -12405.662   -98.411091    198811.38 
   32400    297.15319   -16442.499    2106.7923   -12423.357    77.594364    198018.46 
   32500     297.4293   -16451.032    2104.2847   -12432.621    2.7126808    197612.08 
   32600    303.24893   -16486.376    2056.6328   -12478.164    127.56952    194537.91 
   32700    297.70086    -16498.99    2099.0654    -12484.05    88.979333    194101.66 
   32800    300.57742   -16457.702    2081.1161   -12442.199    88.203515    196915.08 
   32900    297.74386    -16431.45    2092.3312   -12422.968   -18.226782    197098.84 
   33000     295.9314   -16481.048    2124.7715    -12451.79    174.44669    194006.15 
   33100    296.69982   -16518.418    2127.9348   -12481.051    47.852154    191913.65 
   33200    299.96759   -16497.139     2095.804   -12470.872    181.33016    193515.35 
   33300    300.92313   -16422.308    2073.1783   -12412.518    9.5306442    197711.28 
   33400    294.87272   -16420.752    2128.2368   -12394.842      56.0839    198600.39 
   33500    302.08393   -16465.993    2106.1473   -12415.764    79.355263    196668.99 
   33600    307.07389   -16446.422    2049.0886   -12421.138    147.75384    196875.56 
   33700    304.36415   -16450.183    2071.3978   -12420.028    11.313814    197129.18 
   33800    299.14851   -16432.803    2121.8227    -12385.79    18.928722    199445.25 
   33900      297.643   -16408.213    2108.7989   -12383.912   0.52352956    199622.16 
   34000    304.35181   -16419.286    2066.2563   -12394.352    33.368101    199048.22 
   34100    299.18912    -16451.32    2110.6999   -12415.168    2.1246064    197872.54 
   34200    295.29456   -16465.006    2133.6176       -12431    137.78362    197213.44 
   34300    302.36052   -16471.516     2089.698   -12435.956   -43.853239    197425.32 
   34400    305.99599    -16489.51    2060.3808   -12459.871    78.882614    196066.74 
   34500    292.33798   -16483.641    2144.1366   -12458.143    51.209509    196494.52 
   34600    299.33087   -16460.033    2088.7635   -12444.905    108.26417     197287.7 
   34700    299.99957   -16456.613    2069.8722   -12456.073    2.9781927    195811.53 
   34800    305.74613   -16483.412    2078.2657   -12437.497    13.956283     196551.2 
   34900    304.20717   -16451.998    2082.7155   -12411.536   -14.244746    198513.91 
   35000    302.79531   -16462.037    2100.4862   -12412.891    3.4552604    198650.68 
   35100    297.68373   -16470.618    2090.6284   -12464.226    173.16382    195493.85 
   35200    298.52508   -16488.541    2091.4041   -12475.958   -23.956584    194098.73 
   35300    298.29207   -16488.697    2115.7689   -12453.249     19.58651     195357.7 
   35400    296.02984   -16471.839     2119.761   -12446.958    46.143042    196407.34 
   35500    299.21617   -16471.704    2090.1461   -12455.932     143.8939    196436.27 
   35600    304.15651   -16479.821    2063.8025   -12458.598   -12.031419    196183.92 
   35700    299.76379   -16491.239    2091.5322   -12470.556    209.89866    194974.51 
   35800    300.68784   -16494.061    2086.2498   -12472.714   -37.454602    194476.36 
   35900    295.99819   -16458.543    2110.9784   -12442.648    100.34583    196293.51 
   36000    295.04289     -16462.3    2137.0496   -12426.481    27.589876    197001.59 
   36100    297.57724   -16482.659    2111.2345   -12456.346    33.095669    195323.75 
   36200    301.20796   -16483.745    2100.2441   -12445.056    18.603845    195948.41 
   36300    300.83725   -16451.815    2101.9199   -12413.837    67.950147    197365.79 
   36400    296.47799   -16423.193    2121.1672   -12394.022    34.900183    197845.32 
   36500     300.8035   -16419.318    2116.3172   -12367.159    88.961388     199132.6 
   36600    298.05642   -16417.849    2125.5746   -12374.111    28.383613    198883.97 
   36700    305.08612   -16421.548    2084.3352    -12373.81    37.862567    198964.02 
   36800    300.40381   -16446.279    2113.7627   -12399.246    10.243733    197646.46 
   36900    295.98868   -16470.076    2153.6223   -12411.598   -66.891392    196809.59 
   37000    302.94155   -16471.001    2098.5195   -12422.881    75.532184    197176.67 
   37100    303.02934   -16479.509     2122.154   -12407.189    98.788079    198890.55 
   37200     293.4152   -16426.942    2122.7504   -12415.898    19.775149    198169.42 
   37300    301.05237   -16477.948    2102.9988   -12437.506   -2.1853713    195586.31 
   37400    301.06116   -16509.041    2118.2972   -12453.244    142.41763    194051.74 
   37500    306.57013   -16492.873    2081.0331   -12438.886    77.309667    196117.28 
   37600    301.75554   -16441.361     2050.417   -12448.975    40.861683    196849.62 
   37700    288.70606   -16445.628    2143.8624   -12443.778    6.7452716    196810.03 
   37800    295.14107   -16432.617    2124.4357    -12408.78    137.09923    198107.04 
   37900    300.59066   -16417.486    2076.5914   -12406.423    11.639295    198330.43 
   38000    304.73619   -16467.818    2085.0999   -12421.567     41.83021    197580.87 
   38100    298.83477   -16472.504     2101.765   -12447.568    68.635847    196429.38 
   38200    300.43632   -16491.239    2101.7132   -12456.047    93.145749    195693.77 
   38300    299.80561   -16504.772    2094.6184   -12480.734    24.109243    193804.33 
   38400    299.42821   -16515.188    2114.4801   -12473.717    115.33973    194091.45 
   38500    300.67396   -16474.823    2094.0652   -12445.749    139.03398    195972.55 
   38600    295.67699   -16423.806    2103.2699   -12417.686    8.3017432     196995.4 
   38700    300.13501   -16428.731    2097.9822   -12399.209   -62.683976    197437.21 
   38800    303.20012   -16467.822    2086.8524   -12429.704    36.025969    195261.14 
   38900    302.10245   -16476.487    2108.0492   -12424.236    152.76807    196047.73 
   39000    297.67678   -16396.619    2103.8225   -12377.077    54.387858    200188.03 
   39100    309.02214   -16463.484    2075.9681   -12398.783   -26.666168    198746.14 
   39200    303.06086   -16490.385    2088.7153   -12451.301    3.2691158    195966.83 
   39300    297.27747   -16482.595    2109.8074   -12459.638    44.207635    196167.28 
   39400    297.32319   -16480.275    2110.8572   -12455.974    73.586279    196718.67 
   39500    301.57105   -16454.888    2076.7924   -12437.314    157.04031    197350.22 
   39600    297.34961   -16466.506    2123.5101   -12429.382   -32.043381    197379.23 
   39700      302.295   -16459.499    2066.4153   -12447.643    60.431344    196105.42 
   39800    304.23729   -16457.819    2078.0267   -12421.853    4.7550655    197964.95 
   39900      301.097   -16424.391    2093.5606     -12393.1    26.133746    200019.05 
   40000    303.69458   -16420.298    2067.3763   -12398.474    53.808038    200193.27 
   40100     303.8173   -16441.295     2056.116   -12429.942    63.973612    198288.52 
   40200     298.4929    -16469.77    2078.7386    -12470.06    -16.08845    195534.97 
   40300    298.76913   -16466.299    2090.6116   -12452.938    6.4230758    196107.48 
   40400    300.11047   -16402.181    2073.4096    -12397.39    130.34465    199020.59 
   40500    299.83538   -16410.647     2113.889   -12367.147    203.34759    200241.97 
   40600    310.80792   -16446.684    2053.8118   -12392.646    72.913267     199077.5 
   40700    303.26155   -16461.299    2074.9022   -12434.736    94.138444    196959.67 
   40800    300.20956   -16467.222    2091.0326    -12444.17    81.519183     196682.6 
   40900    298.75931    -16461.13    2084.4693   -12453.975    40.773894    195897.61 
   41000    303.21363   -16493.645    2071.5652   -12470.727    98.340072    194839.94 
   41100    301.86856   -16478.071    2087.3578   -12448.017    72.364635    196562.32 
   41200    300.53193   -16459.947    2087.4261   -12438.427   -73.235289    197088.02 
   41300    302.61784   -16504.114    2084.2372   -12472.358    71.788623     194503.9 
   41400    304.72169   -16541.739    2089.5402   -12491.141    162.33509    193814.03 
   41500    301.57351   -16500.399    2059.3565   -12500.245    109.82886    193942.74 
   41600    299.63408   -16456.937    2062.2387   -12466.383    60.958206    195772.88 
   41700    301.52852   -16438.031    2063.3134    -12434.21     71.48559    196964.08 
   41800    299.90679    -16454.87    2097.6534   -12427.146    31.477987    197064.95 
   41900    298.82815   -16455.247    2103.9191   -12428.199    41.833358    197951.57 
   42000    299.63084   -16427.201     2066.527   -12432.379    124.36843    198165.94 
   42100    302.60267   -16438.151    2081.9329   -12408.797   -28.022719    199298.65 
   42200    300.78255   -16425.883     2101.255   -12388.921    74.834952    200274.15 
   42300    308.73005   -16423.321    2044.2369   -12392.231    103.36223    200026.04 
   42400     297.6208   -16427.146    2102.0795   -12409.707    130.70318    198863.19 
   42500    297.80062   -16467.884    2103.4118   -12447.956    93.266235    196614.03 
   42600    296.61258   -16495.043    2117.7333   -12468.439    35.781852    195512.09 
   42700    298.20117   -16467.411    2080.8437   -12467.473   -61.149494    196123.39 
   42800    295.63115   -16451.114    2092.4474   -12456.112    51.001611    196985.44 
   42900    297.52934   -16425.678    2072.1872    -12438.72    168.70356    197433.33 
   43000    297.88399    -16433.44    2104.7334   -12411.654    54.387035    198173.34 
   43100    300.66628   -16439.428    2093.3386   -12411.131    12.853912    197781.01 
   43200    302.00051   -16485.234    2091.9134   -12449.775   -24.988292    195854.67 
   43300    300.21382   -16488.914    2102.6904   -12454.177    84.676228    196657.65 
   43400    291.48019   -16440.772    2133.5876   -12431.344   -82.137522    198578.23 
   43500    301.12043   -16442.001     2077.035   -12427.085    142.84719    199264.37 
   43600    295.95299   -16445.825    2115.1261   -12426.073   -25.491649     199742.3 
   43700    300.22598   -16447.176    2085.6496   -12429.402    68.712526    199587.58 
   43800    301.03078   -16444.494    2075.5591   -12431.631     102.8243    199005.44 
   43900    302.63501   -16492.627    2085.5537   -12459.445    44.432253    197021.09 
   44000    302.93685   -16521.699    2080.4368   -12491.691    8.3585027    194761.67 
   44100    299.79737    -16501.92    2090.0836    -12482.47    112.21301    194866.03 
   44200    294.14407   -16451.857    2121.1163   -12437.757    -123.7431    197869.33 
   44300    302.39939   -16431.931    2071.0781   -12414.741    124.40554    198622.03 
   44400    301.00238    -16459.37    2091.6421   -12430.606    27.684803    196693.27 
   44500    301.38854   -16473.425    2105.1928   -12428.626    80.870446    196092.59 
   44600    302.02554   -16464.154    2098.9791   -12421.469    116.40921    197046.04 
   44700    305.88478   -16456.123    2074.2081   -12413.373    22.459644    198265.63 
   44800    295.88436   -16437.168    2119.6511   -12413.333    36.674449    198004.76 
   44900    296.02695   -16440.929    2135.9722   -12399.855    43.979761    198472.32 
   45000    305.63914   -16460.422    2078.2276   -12415.232    129.29463    197437.23 
   45100    302.17957   -16473.335    2099.7411   -12428.897    88.186637    196605.79 
   45200      306.101   -16448.546    2054.1991   -12424.413    68.098332    196786.84 
   45300    304.75081   -16459.091    2079.3431   -12418.503     37.03535    196664.79 
   45400    304.39015   -16507.778    2078.5877   -12470.266    174.73612    193304.26 
   45500    305.69735   -16528.422    2085.6293   -12475.456   -59.256817    193294.49 
   45600     299.7521   -16501.915    2108.7431   -12464.097    73.131215    194999.42 
   45700    298.37741   -16497.556    2109.4316   -12467.896    23.014699    195628.19 
   45800    306.07395   -16526.958    2041.0607   -12516.138    25.911531    192773.45 
   45900    292.16913   -16509.582     2126.527   -12502.781    131.76282    194113.42 
   46000    300.72981   -16507.027    2097.2683   -12474.391     129.8784    196259.72 
   46100    302.04215   -16497.668    2077.2126   -12476.642   -27.561486    196725.19 
   46200    301.31293   -16497.427    2094.0497   -12464.257    157.92099    197249.49 
   46300     298.5084   -16480.125    2114.4391   -12444.615    36.012009    198157.38 
   46400    299.69026   -16445.197    2092.6389   -12423.881    28.921281    199034.71 
   46500    298.58701   -16465.495      2104.75   -12439.167   -104.93513    197373.41 
   46600     302.7005    -16468.27    2068.4235   -12451.797    63.177518    195979.67 
   46700    298.82915   -16503.246    2134.9652   -12445.146    102.56111    195756.56 
   46800    304.15778   -16485.008    2075.5578   -12452.021     134.9993    196152.35 
   46900    304.30215   -16530.072    2091.7332   -12479.982   -20.329214    195077.33 
   47000    302.84888   -16512.946    2058.2893   -12505.652    125.67854    193669.51 
   47100      293.568   -16453.329     2118.231   -12445.821   -36.711586    196376.28 
   47200    298.85235   -16468.772    2132.9216   -12412.566    13.226406    198178.12 
   47300    302.87473   -16495.331    2089.3835   -12456.776    119.53343    196119.57 
   47400    303.56907   -16495.196    2035.9408   -12505.616     142.3778    193727.14 
   47500    299.33611   -16469.729      2073.11    -12470.22   -33.307454    195625.54 
   47600    302.00198   -16470.061    2085.9328   -12440.574    15.936455    197265.13 
   47700    309.68503   -16486.195    2056.8193   -12436.376    108.77678    197204.26 
   47800    298.98223   -16461.013    2106.9837   -12429.909    31.091198    197805.32 
   47900    303.77893   -16437.571    2065.2722   -12417.309    -2.031512    199001.58 
   48000    303.74716   -16465.708    2083.3318    -12427.59    43.950356    198143.74 
   48100    295.85083   -16479.702    2122.5258   -12453.208    120.00296    196505.25 
   48200    303.12558   -16484.275    2083.7737   -12449.716    119.74722    196898.76 
   48300    296.87089   -16456.768    2105.3777   -12440.857    93.903345    197775.38 
   48400    296.27794   -16435.722    2098.8051     -12430.2   -36.739857    197912.17 
   48500    298.09193   -16463.942    2107.2107    -12438.34    43.701929    196424.51 
   48600    297.87534   -16521.951    2137.9071   -12467.047    72.314504    193737.81 
   48700     298.4733    -16494.68    2107.9856   -12465.849    51.340639    194058.53 
   48800    297.24949   -16488.207     2115.851   -12459.386    34.911961    195054.82 
   48900    297.53527   -16471.206    2100.1128   -12456.285    79.195746    195108.12 
   49000    300.54282    -16507.44    2124.4321   -12448.844   -63.986657    194868.78 
   49100    298.17292   -16523.978    2122.8154    -12482.25    36.236078    192542.54 
   49200    299.02273   -16519.955    2123.7225   -12471.851    105.30194     194248.6 
   49300    301.74706   -16463.124    2072.9846   -12448.226   -5.6094756    197031.08 
   49400    297.05725     -16463.7    2118.5394   -12433.428    57.429669    197768.76 
   49500     295.1764   -16502.075    2127.7132   -12474.733   -31.217707    194772.25 
   49600    301.74664    -16511.98    2068.3105   -12501.758    57.430324    193212.28 
   49700    300.18014   -16477.285    2071.5904   -12473.864    184.66951    195393.17 
   49800    298.78395   -16460.427    2093.8882   -12443.694    79.723537    196767.17 
   49900     299.5385   -16466.788    2082.2381   -12456.849    -51.24126    194541.27 
   50000    302.16078   -16482.452    2093.3861   -12444.489    117.98292    194043.55 
   50100    299.57016   -16482.394    2130.7458   -12423.744   -40.382898    195572.44 
   50200    304.87797   -16494.013    2082.4568   -12449.493    19.970008    195172.06 
   50300    306.74701   -16520.508    2056.3879   -12490.029    61.091642    193651.54 
   50400    300.81376   -16477.209    2087.0184   -12454.283    18.022056    196634.68 
   50500    302.35849   -16434.852    2082.6353   -12406.368   -68.405545    200164.79 
   50600    298.32123   -16469.017    2130.9165   -12418.234    108.98194    199617.31 
   50700    305.23688   -16453.357    2053.5414   -12435.443    27.428409    198805.74 
   50800     299.5002   -16430.251    2064.7124   -12438.085     66.12977    198389.25 
   50900    297.50046   -16439.385    2120.1409   -12404.659   -4.2429318    199938.74 
   51000    300.05431    -16438.44    2093.1371   -12414.283   -31.219351     199044.2 
   51100    301.91232   -16429.766    2084.7844   -12402.004    72.165906    199285.55 
   51200    298.38944   -16417.556    2108.8598    -12388.39    78.763777    200396.55 
   51300    301.70084   -16449.767    2101.9405   -12406.209   0.96944377    199673.68 
   51400    302.94681   -16469.221    2076.6091   -12442.977    69.367606    197648.25 
   51500    304.36292    -16474.24    2071.4003   -12444.092    51.849621    197041.57 
   51600     298.1306   -16447.455    2125.2639   -12403.551    83.549556    198918.89 
   51700    297.89565   -16434.266     2120.996   -12396.142   -30.363971    199188.94 
   51800    305.09914   -16470.854    2064.0844   -12443.283   -23.181133       196517 
   51900    301.33264   -16513.449    2084.9395   -12489.262   -10.178252    193635.05 
   52000    292.17749   -16500.097    2146.4112   -12473.357     70.46779    194393.37 
   52100    300.76772   -16468.828    2103.9945   -12429.222    128.18326    196998.38 
   52200    302.40559   -16494.161    2102.9082   -12445.101    199.37838     195815.3 
   52300    295.93073   -16513.357    2122.4436   -12486.431    2.0163411    193769.81 
   52400    294.22849   -16487.226    2121.9519   -12471.746   -51.717321    195008.68 
   52500    298.32386   -16462.463    2106.9065   -12435.673    44.802341    197355.09 
   52600    300.74451   -16441.573    2093.4818   -12412.629    85.875373    198457.16 
   52700    294.40271   -16452.284    2125.5532   -12432.082   -12.079951    196560.37 
   52800    298.13386   -16474.643    2092.9361   -12463.046    16.773655    194315.33 
   52900    296.47702    -16485.65    2140.4715   -12437.181   -2.0425041    195916.75 
   53000     302.8807   -16442.323    2093.7165   -12399.397  -0.18437725     198947.5 
   53100    301.59457   -16426.624    2082.6791   -12403.013   -3.2095995    199437.86 
   53200    304.29451   -16466.921    2068.6017   -12440.011    189.85954    197093.41 
   53300    297.49254   -16459.557    2096.8534    -12448.17   -13.093874    196392.11 
   53400    303.00305   -16495.646    2097.3241   -12448.325     63.77276    195346.31 
   53500    300.89404   -16505.575    2111.8393   -12457.312    20.634973    194778.92 
   53600    303.77502   -16480.698    2084.2139   -12441.519    113.99144    197030.28 
   53700    298.08799   -16442.142    2100.6404   -12423.135   -31.543658    199478.54 
   53800     296.5586   -16453.101    2117.8288   -12426.749    169.41467    199172.29 
   53900    297.93218   -16448.844    2093.5559   -12437.925    5.0972205     198080.4 
   54000    300.80685   -16479.946    2083.2959   -12460.787    90.573356    196371.51 
   54100    305.54623   -16510.243    2056.1584   -12487.721    87.025095    194600.48 
   54200    306.73249   -16465.349    2052.7691   -12438.582    33.031885    197553.92 
   54300    297.85541   -16411.549    2097.6007    -12397.08   -72.483495    200151.42 
   54400    302.74245    -16432.08    2097.8752   -12385.884    121.84985    200261.76 
   54500    303.50603   -16465.593    2081.7058   -12430.653    35.625177    197307.48 
   54600    302.28341   -16483.383    2089.1253   -12448.892     10.23227    196089.54 
   54700    302.93301   -16496.527    2087.8156   -12459.165    35.512395     195472.5 
   54800    298.28937   -16454.687     2094.468   -12440.558   -5.5481732    196312.22 
   54900    297.16556   -16474.967     2124.165   -12438.372      7.11199    196098.08 
   55000    298.87626   -16490.606    2111.4349   -12455.732    46.255248    195223.36 
   55100     292.9946   -16485.586    2134.8897   -12465.109    36.962828       194775 
   55200    303.06815   -16500.231    2098.7069   -12451.108    125.52708    196109.79 
   55300    302.32769    -16465.99    2085.2195   -12435.119    3.9884634     197639.9 
   55400    302.33692   -16482.963    2081.7967   -12455.456    95.153768    196107.66 
   55500    297.34405   -16471.012    2103.8193   -12453.615    158.04481    195749.95 
   55600    294.10179   -16477.322    2144.3662   -12440.244   -17.116975     196561.2 
   55700    302.02691   -16476.174    2079.8903   -12452.569    61.662391    195841.85 
   55800    306.38842   -16474.371    2044.8242   -12457.763     91.56229    195780.78 
   55900    297.43665   -16504.951     2114.595   -12476.182    35.926724    193998.68 
   56000    303.82141   -16503.138    2064.8744       -12483    112.67988    193049.82 
   56100    306.01149   -16554.217    2097.3871   -12487.471    117.85496    192454.43 
   56200    298.66594    -16527.99    2120.3911   -12485.514   -16.317686    193227.08 
   56300    291.54599   -16494.965    2143.2739   -12475.427    -46.02699     194656.4 
   56400    295.75757   -16481.413    2115.1285   -12462.916  -0.88682037    195092.03 
   56500    305.36419   -16464.325     2062.257   -12436.875    106.62409    195815.86 
   56600    299.42296   -16473.611    2136.8968   -12409.757   -43.496939    197361.05 
   56700    302.80372   -16452.972      2095.92   -12408.338    63.680576     198025.7 
   56800    303.87069   -16428.472    2067.5675   -12405.324    82.643249    198657.62 
   56900    300.23519    -16399.96     2083.411   -12384.365    97.752201    199951.36 
   57000    301.19435   -16444.454    2121.2442   -12384.853    126.60358    200137.53 
   57100    298.72959   -16465.408    2101.4257   -12441.487    55.760862     197124.1 
   57200    295.32236   -16479.009    2109.5064   -12468.936    -13.40578    195841.93 
   57300     300.7918   -16470.653    2089.6992   -12445.187    93.573687    197113.23 
   57400    298.33142   -16456.819    2117.6289   -12419.257    2.4344746    198341.78 
   57500    302.78193    -16470.86    2098.2952   -12423.991     43.55764    197787.12 
   57600    301.83718   -16467.756    2077.8314    -12447.43    34.348223    196514.76 
   57700    294.66905   -16463.139    2124.4933   -12442.283   0.87081654    196326.68 
   57800    300.45713   -16450.869    2091.6285   -12425.628    97.904433    196519.48 
   57900    303.95426   -16466.768    2099.0898   -12411.559     185.9536    197039.81 
   58000     294.1636   -16445.064    2135.8875   -12416.067     95.52037    197430.32 
   58100    304.36983   -16438.457    2078.4972   -12401.166   -118.93984    199212.38 
   58200    297.50807   -16437.009    2112.4258   -12409.949   -40.138927     198246.2 
   58300    302.08689    -16462.44    2088.6942   -12429.645     1.384283    196728.12 
   58400    302.04915    -16491.91    2082.9739   -12465.078    156.99295    195004.03 
   58500    299.60336   -16487.395    2094.7456   -12464.531    17.209023    195687.75 
   58600    297.98057   -16481.637    2096.7319   -12467.231    94.055869    195749.12 
   58700     300.0593   -16458.881    2074.4268   -12453.402   -2.0259898    196620.33 
   58800    297.08464   -16462.339    2103.0211   -12447.409    114.18725    196939.05 
   58900    296.28004   -16468.235    2113.9188   -12447.585   -31.124562    197332.32 
   59000    302.34297   -16469.892    2070.5846   -12453.559    12.250506    197465.13 
   59100    294.70162   -16498.693    2113.9682   -12488.152    16.126661    194721.86 
   59200    298.41524   -16474.426    2094.0316   -12459.922    71.654163    196002.56 
   59300    303.71173   -16466.804     2080.883   -12431.363    29.429358    197601.62 
   59400     296.9224    -16469.67    2116.5183   -12442.287    220.36637    196539.84 
   59500    291.06577   -16459.754    2149.0968   -12437.483    113.90282    196267.19 
   59600    303.77271   -16440.382    2061.3293   -12424.103   -6.1528103    197073.03 
   59700    296.52857    -16430.42    2126.0328   -12396.057    32.151311    199096.34 
   59800    302.65079   -16429.873    2082.5134   -12399.629     15.27515    198578.28 
   59900    301.96145   -16445.538    2094.1356   -12408.109    67.364922    197941.13 
   60000     300.4301    -16443.22    2099.1247   -12410.657    31.806547    198011.06 
   60100    297.29967   -16417.645    2101.4526     -12402.9    36.925449    198802.98 
   60200    298.96403   -16406.847    2110.7489   -12372.094    30.309365    200487.25 
   60300    292.83435   -16387.511    2129.6286   -12373.326    138.56164    199410.58 
   60400    305.27085   -16431.159    2082.3504   -12384.217     110.4001    197768.81 
   60500    300.34713   -16480.347    2136.7227    -12410.72    64.806919    196155.48 
   60600    298.80581   -16485.182    2131.8387   -12430.358   -53.628251    195689.95 
   60700    309.23588   -16487.653    2041.6527   -12455.892    24.439583    194887.24 
   60800    301.22146    -16465.04    2069.8629   -12456.645    46.591827    194956.63 
   60900    295.61992   -16481.655    2127.4404   -12451.733    51.456854    194641.18 
   61000    301.29115   -16451.938    2079.2949   -12433.663    1.9999029    195991.11 
   61100    298.26195   -16459.924    2117.0429   -12423.396    22.416603    196719.99 
   61200    296.89915   -16477.338     2126.909   -12439.714     108.0981    195214.67 
   61300    304.09979   -16504.572     2108.422   -12439.095   -1.7234427    194679.16 
   61400    303.74593   -16515.546    2097.7615   -12463.007    36.868864    193432.86 
   61500    303.94837   -16533.786    2078.4875   -12499.217    85.232868    191577.41 
   61600    296.72085   -16509.003    2104.2179   -12495.218   -33.412122    192448.95 
   61700    300.88791   -16475.551    2114.7161    -12424.45   -28.558886    196748.19 
   61800    304.75222   -16449.532    2097.1696   -12391.108    55.288538    198619.04 
   61900    296.05694   -16427.206    2125.3273   -12396.584     30.95851    197475.09 
   62000    303.88317   -16459.211    2084.4579   -12419.092    174.48074    196020.77 
   62100    297.17771   -16464.954    2138.1505   -12414.296   -33.959339    197356.47 
   62200    301.97369   -16437.125    2081.1837   -12412.569    136.59564     198940.3 
   62300      302.601   -16457.135    2087.5622   -12422.164    27.076202     199143.5 
   62400    301.06689    -16455.52    2080.5422   -12437.442    83.667696    197888.01 
   62500    297.37206   -16423.169    2108.8681   -12400.543    67.408516    199910.07 
   62600     300.3977   -16405.955    2101.8488   -12370.876    75.846076    201649.47 
   62700    303.98365   -16440.803    2070.4023   -12414.093    102.83901    198654.19 
   62800    302.40464   -16497.073    2087.1603   -12463.767    16.217662    195101.91 
   62900    299.97281    -16458.24    2090.4366   -12437.308    51.313015    196779.37 
   63000     301.2648   -16457.766    2097.4582   -12421.498    36.422039    198099.53 
   63100     301.1258   -16456.329     2083.464   -12434.949    53.927407    197060.23 
   63200    297.68112   -16470.378    2115.6692   -12438.961   -21.467961    196435.47 
   63300    298.82084   -16437.728    2107.0144   -12407.632    27.886548    198494.55 
   63400    300.19402       -16418    2099.9126   -12386.168    34.445722    200519.37 
   63500    297.23262   -16413.059    2114.3181    -12385.88    117.70843    200855.02 
   63600      299.847   -16441.788    2093.6314    -12418.47    111.31174    198539.71 
   63700    301.99158   -16433.196    2070.7088       -12419   -4.4511101    198533.23 
   63800    296.07328   -16422.771    2114.6543   -12402.716   -21.568892     199313.6 
   63900    293.98638   -16445.086    2139.8043   -12413.312    124.92492    197860.27 
   64000     300.3536   -16470.117    2106.6597   -12430.511    77.129211    196220.19 
   64100     302.8345   -16494.882    2078.1292    -12467.84    124.97603    194050.74 
   64200    299.47383   -16482.112    2099.6662   -12455.161   -32.583423    194994.55 
   64300    298.87713   -16430.421    2092.7927   -12414.184    33.415281    198183.06 
   64400    299.70259   -16415.967    2103.3562   -12383.854    65.036469    200322.96 
   64500    299.97718   -16445.457    2079.4429    -12435.49     170.6385     197043.9 
   64600    301.16076   -16471.247    2095.9286   -12437.177    24.480329    197004.48 
   64700    293.96193   -16421.322    2128.2266   -12401.283     142.1851    199323.31 
   64800    306.75592   -16420.097    2063.7237   -12382.225    37.765642    200355.58 
   64900    301.04457   -16432.061    2095.2242   -12399.444    79.918164    199348.79 
   65000    297.96725   -16459.819    2098.0889   -12444.142    119.24384    196728.17 
   65100    299.88711   -16449.385     2091.196   -12428.245    -25.36598    197464.86 
   65200    295.75645    -16404.32     2103.979    -12396.98    12.203714    199067.27 
   65300    299.72651   -16422.145    2099.8272   -12393.407   -10.878639    198763.53 
   65400    299.53337   -16450.674    2104.4004   -12418.606    78.916002    196758.66 
   65500    292.29745   -16446.566    2135.8334   -12429.632   -39.277792    195476.88 
   65600    304.70042   -16458.635    2077.4496   -12420.265    56.292166    195455.24 
   65700    299.14168    -16460.99    2123.1482   -12412.695  -0.79752802    195898.65 
   65800    299.04094   -16480.237    2131.2743   -12424.464    73.933211    195860.27 
   65900    295.24901    -16450.91    2099.3095   -12451.505    8.7443572     195064.6 
   66000    303.01191   -16478.727    2074.9416   -12453.731    176.09881    195139.15 
   66100    302.16479   -16498.035    2079.6832   -12473.749   -23.082457    193810.45 
   66200    296.74407   -16505.983     2105.549   -12490.717    41.489031    192222.24 
   66300    305.20545   -16476.728    2039.7349   -12472.822    44.852931    193401.44 
   66400    305.45489   -16475.409    2057.6233   -12452.009    219.14129    194762.09 
   66500    299.38647   -16454.318    2102.5717   -12425.024   -18.528957    196920.09 
   66600    300.54213   -16452.127    2096.9265   -12421.041    69.407091    197523.02 
   66700    292.93661   -16432.331    2123.5324   -12423.585   -49.505038    197807.75 
   66800    298.50564   -16428.356    2095.4867   -12411.816    27.944296    198691.95 
   66900    291.92094   -16431.035    2137.3662   -12414.992    127.03483    198136.79 
   67000    291.42605   -16418.627    2147.5773   -12395.557     122.7684     199230.3 
   67100    301.27807   -16408.748    2077.7781   -12392.074    81.917066    199642.26 
   67200    303.72029   -16429.765    2080.4435   -12394.708    4.5841765    199889.35 
   67300    300.31989   -16419.979    2085.3276   -12401.922    85.735813    199524.47 
   67400    303.98395   -16423.784    2055.4364   -12412.038    39.197533    199181.08 
   67500    302.37103    -16465.27    2076.6641   -12442.676    67.891946    197188.01 
   67600    300.68506    -16455.85    2091.7417   -12429.029   -13.383626    198273.53 
   67700    295.70784   -16416.095    2092.4719   -12420.575    72.339274    198430.61 
   67800    298.51655   -16463.563    2123.1647   -12419.275   -68.708173    196909.14 
   67900    298.27903   -16481.452    2121.9632   -12439.893    183.81486    195134.45 
   68000    295.95644   -16476.386    2126.5315   -12445.206     68.03639    195515.65 
   68100    289.24047   -16387.941    2116.2703   -12410.244    66.139546    197970.99 
   68200     303.0403   -16375.351    2063.6592   -12361.455   -1.9182778    200518.13 
   68300    301.83546   -16455.482    2111.5363   -12401.463    83.830648    197415.07 
   68400    303.98655   -16479.151    2097.2112   -12425.614    56.886933    197072.11 
   68500    302.03318   -16419.171    2078.7023   -12396.713    49.738312    199892.39 
   68600    297.89186   -16417.538    2104.5023   -12395.932    -74.71491    199172.25 
   68700    296.50817   -16454.626    2122.6337   -12423.793    41.503595    196427.51 
   68800    297.58196   -16421.019    2085.0143   -12420.896    17.322714    196408.95 
   68900    301.75972   -16416.499    2069.4871   -12405.016    96.023574    197247.41 
   69000    296.45294   -16458.543    2127.6871   -12423.013   -5.3403729    195881.44 
   69100    304.23512   -16499.087    2081.5324   -12459.628    87.497208    193714.59 
   69200    297.82361   -16478.328    2113.1029   -12448.561    158.04834    195518.72 
   69300    300.85078    -16415.23    2066.1202   -12412.964    85.378892    199052.68 
   69400    295.90153   -16423.445    2117.5168   -12401.633   -56.198182    199518.94 
   69500    291.58838   -16461.098    2143.5477   -12441.013    136.67574     196168.5 
   69600    292.10323   -16472.328    2131.1175    -12461.36    1.6892172    194477.27 
   69700    303.16155   -16468.737    2066.4898    -12451.23    52.360161    195115.63 
   69800      294.783   -16495.764     2161.002   -12437.666    3.6187059    195978.13 
   69900    306.45181   -16479.341    2047.8027   -12459.346    107.18094    195101.99 
   70000    303.49398    -16461.69    2039.1891   -12469.344   -19.867069    194631.46 
   70100    308.48508   -16485.177     2030.091   -12469.809    92.458074    193791.86 
   70200    293.92944   -16482.411    2138.8433   -12451.965    43.847455    194130.89 
   70300    299.10046   -16464.014    2098.1139   -12441.018    151.29786    194546.08 
   70400    303.86014   -16446.153    2084.6296   -12406.011    28.127968     196887.9 
   70500    298.76143   -16421.768    2119.0417   -12380.027  -0.91950024    198594.36 
   70600    294.85191   -16454.679    2158.9131   -12398.226    106.60803    196973.04 
   70700    303.45915   -16477.019    2085.8752   -12438.211    117.03554    194788.73 
   70800    301.15965   -16496.752    2100.7437   -12457.874    12.964605    194088.11 
   70900    301.37622   -16472.363    2083.3546   -12449.481   -32.875955    195475.43 
   71000    302.14096   -16450.218     2080.558   -12425.211    24.948489    197353.88 
   71100    303.40838   -16453.528    2042.6136   -12458.309    77.992867    194879.27 
   71200     301.9782   -16481.984    2077.7171   -12460.866    139.81749    194026.44 
   71300    298.47034   -16465.357    2118.0034   -12426.527   -111.73809    196004.46 
   71400    294.46025   -16445.398    2135.2937   -12415.085    5.6917927    196711.23 
   71500    301.81431   -16419.781    2095.8526   -12381.581   -70.266819    198336.52 
   71600    297.91036   -16464.298    2130.5699   -12416.505    150.52605    196113.15 
   71700     301.6961   -16465.538    2092.7734   -12431.179    28.059241    195719.77 
   71800    301.86718     -16426.1    2062.4472   -12420.966    178.09894    197127.86 
   71900    303.43717   -16468.163    2074.6801   -12440.692   -50.272957    195653.64 
   72000    304.05035   -16520.587    2077.8768   -12485.973    92.618343    192893.58 
   72100    304.06105   -16510.336    2069.6792   -12483.851   -20.878583    193212.84 
   72200    297.00997   -16460.064    2095.9294   -12452.707    127.76334    195517.71 
   72300      302.742   -16473.645    2070.6846   -12454.643    -38.29575    195061.56 
   72400    300.23875   -16469.314    2093.9417   -12443.165   -47.615029    195640.96 
   72500    295.58427   -16443.468    2116.3947   -12424.821   -10.785973    197401.09 
   72600    301.32465   -16430.447    2068.9937   -12422.257     152.4474    198523.21 
   72700    295.74527   -16417.079    2101.3283   -12412.462    45.242411    198391.57 
   72800    299.64975   -16451.096     2107.262   -12415.417    58.552144    197227.51 
   72900    303.15571   -16458.119    2089.6359   -12417.504    63.702568    196707.31 
   73000     300.9741   -16460.122    2101.7096   -12421.473    46.768535    196928.43 
   73100    298.50156   -16474.678    2109.8362   -12443.814    51.035504    195694.11 
   73200    306.67128   -16481.357    2051.8106   -12455.942   -20.496904    194887.26 
   73300    297.07731   -16484.808    2102.2365    -12470.71    97.760243    194272.48 
   73400    307.81741   -16511.011    2060.7079   -12469.323   -40.580585    194707.37 
   73500    303.15944    -16504.71     2075.713   -12477.993    63.217343    194869.43 
   73600    305.90843   -16502.274     2055.254   -12478.325     99.42624    195139.27 
   73700    297.62797   -16481.961    2092.3345   -12474.221    14.301186    195446.96 
   73800    300.19449   -16485.514    2085.1071   -12468.484    8.7412582    195315.63 
   73900     295.4133   -16502.124    2123.9313    -12477.04     43.84162    194103.05 
   74000    298.54386   -16481.281    2102.2015    -12457.78     40.25109    195320.26 
   74100     297.1611   -16473.962    2117.5663   -12443.995    108.93623    196420.52 
   74200    299.94061    -16467.07    2089.3986   -12447.383     88.04817    196480.13 
   74300    304.06971   -16487.986    2072.9154   -12458.209    114.76581    196044.91 
   74400    298.54314   -16481.278    2070.1303   -12489.853   -40.914532    194451.04 
   74500    299.65773    -16466.58    2098.5346   -12439.578    104.26167    197193.75 
   74600    300.57306   -16435.234    2074.8488   -12426.026   -1.5497918    197380.87 
   74700    296.42037   -16468.352    2120.4163   -12440.302      175.491    195882.78 
   74800    304.68744   -16492.872    2071.5946   -12460.441   -40.316598    195015.48 
   74900    300.99641   -16475.987    2078.4191   -12460.484    43.265528    195925.29 
   75000    302.93861   -16456.322    2075.6395     -12431.1    3.0568075    197954.19 
   75100    289.31605   -16428.285    2148.0763   -12418.295     176.8015    198629.65 
   75200     296.1657   -16424.002    2114.4649   -12403.542     138.8046    199805.61 
   75300    292.20285   -16405.538    2128.5148   -12396.531    160.17701    200700.64 
   75400    296.49458   -16375.727    2088.4032   -12379.212    71.194877    201734.12 
   75500    299.73332   -16399.777    2085.1658   -12385.657    23.948419    200746.54 
   75600    304.37594   -16435.935    2075.9921   -12401.111    7.7323005    199388.19 
   75700    307.31259   -16432.205    2044.6134    -12409.86    136.35366    199140.31 
   75800    299.39057   -16421.544    2084.1785   -12410.617    3.3465648    199310.82 
   75900    305.26464   -16448.553     2059.902     -12424.1    106.22062     198642.9 
   76000    299.09413   -16456.709    2092.3644   -12439.504    110.43789    197571.96 
   76100    299.91221   -16430.908    2057.8311   -12442.971     17.80227    196871.41 
   76200    299.51409   -16433.338    2084.1735   -12421.621    107.28269    197625.23 
   76300    304.46618   -16434.427    2052.5276   -12422.487    115.66064    197161.83 
   76400    297.63448   -16461.471    2107.8592   -12438.165    34.860605    195817.95 
   76500     299.3596   -16514.467    2108.1581   -12479.759    21.656255    193121.23 
   76600    298.95197   -16488.783     2099.661   -12465.196    118.27655    194124.59 
   76700    300.69002    -16454.72    2083.2626   -12436.346    49.070574    196279.24 
   76800    294.79792   -16426.297    2124.6293   -12404.476    119.87804    198117.94 
   76900    302.26588   -16432.869    2078.3588   -12409.258    25.666783    197739.39 
   77000    296.50156   -16425.038    2110.8256   -12406.056    72.649645    197813.18 
   77100    300.96198   -16440.141    2097.5013   -12405.778    63.016587    198117.27 
   77200    296.79252   -16442.862    2125.8722   -12406.962    72.689645    198575.82 
   77300    302.64978   -16430.668    2072.8027   -12410.142    91.078116    199044.56 
   77400     300.1971   -16459.303    2091.7246   -12435.639    -40.63761    197790.06 
   77500     296.6966   -16467.938    2100.5478   -12457.979    102.15028    196635.64 
   77600    295.19027    -16488.28    2087.9871   -12500.576   -4.3863788    194127.18 
   77700    304.06433    -16501.39    2055.0146   -12489.548   -49.497835    194420.82 
   77800    297.51124    -16484.84    2091.4369   -12478.749    53.452647    194590.38 
   77900    300.47068    -16479.37    2098.1699     -12447.5   -42.414854       196027 
   78000    301.99561   -16470.851    2070.6411   -12456.697    -27.44381    195459.28 
   78100    303.82829   -16482.362    2077.4076   -12449.646   -25.730888    196135.01 
   78200    297.13715   -16457.427    2094.8443   -12450.336    99.965256    196480.28 
   78300    302.99167   -16474.172    2082.1309   -12442.117    49.957843    196735.32 
   78400    297.84741   -16463.034    2109.4758   -12436.741    12.888446     196741.4 
   78500    301.88454    -16474.53    2096.9683   -12434.763    8.2351626    196903.54 
   78600    301.50779   -16458.015    2067.7958   -12449.845    40.251078    195998.03 
   78700    301.09859   -16448.908    2071.6548   -12439.513   -43.463687    196311.08 
   78800    307.75542     -16484.9    2060.5276   -12443.791    101.46465    195711.23 
   78900    300.50301   -16481.914    2087.3895   -12460.617    34.497518    194797.57 
   79000    294.97085   -16460.678    2096.9908   -12465.382    -68.59925    194740.15 
   79100    302.33586   -16471.612    2061.9434   -12463.966    25.575769     194683.5 
   79200    303.71522   -16473.671    2052.0839   -12467.007     138.7671    194725.22 
   79300    305.10562    -16507.41    2084.0018    -12459.88     12.87776    195699.26 
   79400    295.01869   -16508.806    2108.1071   -12502.086    93.912911    193725.75 
   79500    304.21068   -16506.775    2060.2944   -12488.712    66.307422    194988.38 
   79600    295.67107   -16451.095    2098.9957   -12449.288    131.68295    197503.63 
   79700    297.99969   -16417.974    2090.6718   -12409.504    3.4307493    199484.14 
   79800    298.90413   -16430.231    2099.5175   -12407.095    67.446616    199230.69 
   79900    299.65242   -16439.475    2096.6087   -12414.433    52.682496    198647.66 
   80000    296.49961   -16447.984    2116.3597   -12423.481    11.400808    198332.32 
   80100    294.36353   -16449.933    2116.9745   -12438.561    44.046211    197288.75 
   80200    297.24195   -16438.662    2095.2189   -12430.522   -26.310675    197939.68 
   80300    307.61924   -16446.852    2059.6228   -12407.524    70.222937    199209.91 
   80400    297.68217   -16474.798    2125.6206   -12433.423     125.7097    197712.84 
   80500    297.01722   -16461.603     2108.666   -12441.462    45.432889    197562.94 
   80600    306.05891   -16460.408    2057.5415   -12433.203    74.890881    198204.25 
   80700    305.85392   -16479.815    2065.2626   -12446.208    141.72075    197307.31 
   80800    289.58941   -16450.121    2155.6781    -12430.77   -38.912044    198363.31 
   80900    299.52909   -16428.242    2084.1787   -12416.423    104.40568    198728.83 
   81000    304.07258   -16446.654    2052.8218   -12436.952    55.590506    197070.66 
   81100    294.23763   -16472.365     2128.558    -12450.22   -40.075136    195492.06 
   81200    294.58848   -16459.159    2132.6497   -12430.665    1.5260068    196637.39 
   81300     299.4317   -16469.849     2100.579   -12442.256    34.317466     195716.2 
   81400    304.86486   -16493.205    2080.9097   -12450.317     55.01479    194874.72 
   81500    297.17728   -16463.728    2100.9431    -12450.28    141.48243    195703.67 
   81600    301.74965   -16445.674    2066.9695   -12436.774    12.897578    196954.65 
   81700    293.35389   -16433.229    2109.5816   -12435.748      66.0563    197174.21 
   81800     300.3701   -16471.121    2087.0532   -12451.016    38.211475     195528.5 
   81900    304.49826   -16492.961    2090.1803   -12443.162    127.58566    195580.07 
   82000    298.53615   -16450.535    2104.4657   -12424.819    45.885236    197707.47 
   82100    303.96361   -16418.561    2051.9114   -12410.471    41.503157    199609.87 
   82200    301.06031   -16444.155    2059.1933   -12447.468    13.549169    196814.17 
   82300    297.84607    -16457.86    2103.4266   -12437.624    136.44143    196838.93 
   82400    298.10251   -16437.673    2098.7651   -12420.448    81.029181    197274.56 
   82500    300.49346   -16482.511    2101.7312   -12446.934    33.420867    194816.56 
   82600    298.29329   -16495.838    2113.1326   -12463.018    39.541868    193912.39 
   82700     297.0926   -16488.774    2114.1165   -12462.697    25.561231    194795.17 
   82800    298.53778    -16448.16    2099.6056   -12427.294    78.849188    197712.83 
   82900     295.7202   -16421.836    2112.1899   -12406.519     145.1883    199006.53 
   83000    298.66777   -16474.736     2126.305   -12426.334    22.583027    197214.73 
   83100    302.54965   -16471.852    2066.9652   -12457.808   -37.550664    194954.17 
   83200    299.01397   -16463.717    2096.3661   -12443.026    77.292153    196037.38 
   83300    296.97071   -16462.865    2124.3814   -12427.308    45.096724     197536.1 
   83400    295.34852   -16455.194     2100.909   -12453.549    83.807432    195955.38 
   83500     296.0231    -16446.53    2111.0062   -12430.446    -8.519298    197135.42 
   83600    310.08746   -16425.544     2055.372   -12374.583    72.025011    199987.84 
   83700    302.58921   -16446.393    2118.7107   -12380.348   -32.989837    199442.73 
   83800    297.38154   -16466.686    2135.3956   -12417.471    79.322444    197337.15 
   83900     297.1477   -16453.585    2129.6044   -12411.666     71.86871    198799.84 
   84000     296.8697   -16412.042    2091.8463    -12409.67    100.05236    199375.12 
   84100    300.96435   -16438.349    2092.1848   -12409.287    79.259363    198943.34 
   84200     300.3957   -16437.547     2084.258   -12420.072   -72.975474    198399.59 
   84300     305.0776   -16450.103    2054.8455    -12431.91      106.432    197758.75 
   84400    298.79145   -16444.535    2101.6125   -12420.029     18.25588    198728.51 
   84500    298.01759   -16441.587    2106.6109   -12417.063    38.578902    199314.66 
   84600    301.80934   -16462.313    2069.2234   -12450.775    23.683568    197490.75 
   84700    292.51823   -16433.042    2130.3315   -12420.189   -14.224604     199266.8 
   84800    299.57256   -16421.193    2085.2742   -12407.999    83.220119    199556.26 
   84900     303.3654   -16452.045    2079.5695   -12420.146    24.038115    197747.26 
   85000    304.01438   -16471.868    2084.3404   -12431.022    55.718515    196609.96 
   85100    303.09782   -16464.923    2095.9727   -12418.343    52.871574    198097.81 
   85200    303.55389    -16476.02     2072.636   -12449.842    19.430584    196840.85 
   85300    299.94087   -16486.408    2072.4239   -12483.694    14.181694    194635.46 
   85400    297.96464   -16495.958    2102.0988   -12476.287    24.439486     194835.8 
   85500    295.69015     -16495.8    2126.8273   -12466.039    26.394949    195447.68 
   85600    295.59499   -16495.305    2120.1829     -12472.8     53.23345     195364.8 
   85700    301.99892   -16500.921    2081.8483   -12475.538     64.61393    195859.39 
   85800    300.18828   -16483.748    2066.5921   -12485.273    59.737149    195308.93 
   85900    302.45983   -16495.966    2077.4569   -12472.008    12.507094     195026.1 
   86000    296.36783   -16463.097    2121.6933   -12434.109   -28.257317     197385.2 
   86100    302.19989   -16425.038    2092.8107   -12387.399   -15.590829    200933.18 
   86200    305.50409   -16419.474    2056.8612    -12396.52    106.67914    200304.29 
   86300    299.24029   -16437.718    2115.4888   -12396.448   -18.368498    199581.94 
   86400    295.98435   -16429.134    2104.9058     -12419.4   -19.756071    197909.89 
   86500    298.23818    -16433.56    2095.4157   -12418.812    113.53122    198104.94 
   86600    298.82038   -16407.089    2092.9135   -12391.097      49.1242     200048.8 
   86700    296.39757   -16396.513    2119.9094   -12369.117    132.17272    201059.93 
   86800    296.44481   -16409.297    2131.6531   -12369.853    72.647477    200163.84 
   86900    300.31747   -16454.413    2111.8368   -12409.862    39.986731    197337.81 
   87000    303.76802    -16484.21    2094.0782   -12435.212    8.7902318    195930.33 
   87100    298.67265   -16487.431    2104.2863   -12461.016    44.207943    194739.63 
   87200    294.16834   -16454.126    2122.8704   -12438.115    4.2964865    196045.14 
   87300    297.18294   -16421.379    2098.3201   -12410.517    189.50139    198279.65 
   87400    300.74979   -16442.326    2097.8517   -12408.979      106.286    199054.59 
   87500    298.94333   -16456.673    2089.5457   -12443.257   -3.6439042    197315.97 
   87600    298.26616   -16467.441    2096.4254   -12451.504    116.50833    195913.13 
   87700    302.84547   -16464.293    2086.0427   -12429.267    29.154087    196834.73 
   87800    306.38098   -16455.263    2087.3121   -12396.215   -13.368874    199231.78 
   87900    300.34958   -16470.274    2115.4976   -12421.855    94.149857    198524.16 
   88000    297.26788   -16454.586    2096.4411   -12445.056    56.588993    197550.18 
   88100    298.66075   -16451.359    2101.6851   -12427.622   -51.421958    197895.71 
   88200    298.23721   -16436.385    2108.9623   -12408.097    93.947434    197935.08 
   88300     307.9504   -16446.154    2076.5407   -12387.778    120.76146    198700.39 
   88400     301.6298   -16445.289    2112.7838   -12391.346     56.56378    199335.49 
   88500    299.99965   -16447.185    2104.2624   -12412.254   -82.981141    198979.22 
   88600    303.27254   -16500.659    2084.3261   -12464.601    63.953194    195452.93 
   88700    306.44837    -16506.77    2053.3548   -12481.246    101.22174    194170.51 
   88800     292.7761   -16480.329     2133.167   -12462.981    44.279992    194926.43 
   88900    298.14134   -16439.022    2085.0525    -12435.26    39.694851    196853.13 
   89000    300.39574   -16471.547    2089.9658   -12448.364   -20.775924    195752.81 
   89100    295.82656   -16486.897    2124.8232   -12458.262    13.484077    194912.21 
   89200    296.31705   -16489.928    2125.8593     -12457.1    89.692463    194789.84 
   89300    297.28138   -16455.529    2102.0457   -12440.309   -1.1688462    195751.25 
   89400    306.57438    -16459.85    2067.2485   -12419.621    44.949905    197046.92 
   89500    304.29865   -16480.885     2086.812   -12435.738   -80.316582    196220.67 
   89600    301.54181   -16478.205     2096.094   -12441.518    138.35254    195964.26 
   89700    297.62945   -16452.311    2075.4972   -12461.399    102.80821    195157.81 
   89800    298.19177   -16448.158    2077.6882   -12451.436    88.258045    195450.38 
   89900    299.17338   -16443.475    2120.8335    -12397.29   -81.509519    198142.04 
   90000    296.35729   -16442.656    2135.6333   -12399.795   -34.377863    198203.05 
   90100    303.29335   -16474.114     2082.075   -12440.173    8.9330215    195620.17 
   90200    300.11762   -16487.927    2103.2142   -12453.285    38.303389     194676.1 
   90300    297.31336   -16461.915    2126.6706   -12421.863    58.602095     196724.9 
   90400    299.23522   -16402.819    2093.8022   -12383.268    38.467856    199557.25 
   90500    295.60692   -16394.553    2104.7946    -12387.36    86.511746    199057.04 
   90600    295.47356   -16465.177    2133.0982   -12430.538    77.810572     195174.6 
   90700    302.82583    -16492.14    2087.8929    -12455.39    100.51374    193530.81 
   90800    301.99005   -16449.983    2068.9843   -12437.521    78.558015    195893.95 
   90900    298.52223   -16445.333    2089.6269   -12434.545    50.353431    197437.22 
   91000    306.05755   -16480.278    2067.2316   -12443.392   -52.381372    197260.36 
   91100    299.91605   -16472.522    2065.0699   -12477.321    31.840427    194505.39 
   91200    306.77112   -16476.135    2060.1226   -12441.766    107.39568    196095.08 
   91300    302.65144    -16425.62    2095.6273   -12382.258    60.791438    200018.72 
   91400    302.76083   -16426.499    2093.4595   -12384.602   -84.872951    200649.11 
   91500     296.6028   -16440.184    2096.2264   -12435.149   -3.8694398    197517.22 
   91600    299.75207   -16445.411    2084.7528   -12431.583     6.568734    197882.03 
   91700    294.44296   -16390.243    2116.0769   -12379.258    119.68797    200994.31 
   91800    303.83287   -16373.534    2057.7681   -12360.428    66.312696    201655.29 
   91900    304.13165   -16404.871    2082.5104     -12365.1    77.783596    200649.12 
   92000    308.02957   -16414.714    2029.9106   -12402.458    45.970607    198551.24 
   92100     300.5701   -16443.511    2094.5991   -12414.572    87.116749    198323.42 
   92200    300.30096   -16437.542    2080.9363   -12423.998   -19.619746    198494.17 
   92300    296.76873   -16441.284    2092.2674   -12439.141     65.09448    197232.95 
   92400    297.53576   -16435.785    2102.0259   -12418.947   -14.709446    198041.37 
   92500    302.49548   -16463.055    2089.9977   -12426.326     76.83928    196444.25 
   92600    304.17569   -16476.944    2090.5848   -12428.816   -52.936531    195570.09 
   92700    301.30005   -16490.419    2086.6293   -12464.752    172.76311    194119.22 
   92800    304.77457   -16502.613    2068.0873   -12473.128    44.512496       195044 
   92900    302.84232   -16493.868    2067.4896   -12477.416    6.2200193    195074.36 
   93000    296.41585    -16491.15    2117.1559    -12466.39    15.328529    195235.42 
   93100    302.23954   -16478.893    2071.8214   -12461.988    54.967892    195685.55 
   93200    298.46391   -16484.797    2101.9863   -12462.026    118.42157    196588.31 
   93300    299.99351   -16469.949    2080.8982   -12458.421    17.540452    196717.46 
   93400    292.18638   -16450.899    2104.8527    -12465.66    -36.60054    194998.65 
   93500    306.15343   -16497.475    2071.1218   -12456.082    -74.35001    194357.09 
   93600     302.8855    -16479.42    2070.3557   -12459.823    169.99512    194164.87 
   93700    294.90511   -16470.205    2118.8012   -12453.522     54.48415    194528.82 
   93800    299.50891   -16432.002    2078.9171   -12425.575     67.36389    195780.64 
   93900    298.54462   -16426.068     2111.929   -12392.835    43.496369    197179.36 
   94000    299.39001   -16417.849    2093.8849   -12397.219    87.827656    197138.09 
   94100    294.96879   -16434.853    2120.2878   -12416.273   -29.989552    196532.69 
   94200    303.62956   -16483.907    2087.5181    -12442.36    86.475714     194706.9 
   94300     302.6284    -16478.34    2093.9776   -12436.777    1.8187028    195368.21 
   94400    305.29759   -16458.768    2089.8633   -12404.141    38.512002    197306.35 
   94500    299.47434   -16455.508    2113.9811    -12414.24     -156.129    196653.78 
   94600    296.73056   -16457.708    2111.6732   -12436.405     132.3699    195202.67 
   94700    299.63587   -16449.155    2093.8706   -12426.957      71.0984    195734.27 
   94800    301.96599   -16490.487    2097.0037   -12450.161    34.379954    194274.21 
   94900    295.29061   -16473.744    2121.9332   -12451.448    74.554325    194396.04 
   95000    299.88649   -16445.628    2103.9103   -12411.777   -79.757536    197014.88 
   95100    299.63878   -16438.032    2101.5661    -12408.12    84.192403    196948.79 
   95200    305.80996   -16472.947    2065.0933   -12439.793    146.37257    194801.04 
   95300    298.46339   -16481.454    2123.1916    -12437.48   -102.05151    195447.79 
   95400    296.91274     -16460.6    2116.4254   -12433.372    59.223441    196682.85 
   95500    301.28866   -16421.851    2070.2413   -12412.646    52.267066    198224.98 
   95600    301.21558   -16454.209    2090.9549   -12424.761    17.030583    197004.56 
   95700    295.88976   -16480.411      2116.97   -12459.222    182.35856    194156.64 
   95800    301.46566   -16471.999    2100.0625   -12431.834    90.114427    195980.95 
   95900    298.78161   -16443.167    2087.4752   -12432.862    98.817257    196539.89 
   96000    306.46365   -16483.367    2053.4481   -12457.651    111.66593    195446.99 
   96100    298.22711   -16479.992    2086.4474   -12474.283    118.93607    194866.36 
   96200    304.59102   -16475.714    2066.9769    -12448.52   -87.229281    196342.86 
   96300    298.59523    -16470.36    2115.4313   -12433.299     72.80553    196722.98 
   96400    305.26457   -16467.552    2072.0432   -12430.958    40.088535     197249.5 
   96500    294.40992   -16455.679    2136.8037    -12424.18    55.929476    198013.38 
   96600      296.181    -16459.14    2108.2862   -12444.761    106.23691     196631.2 
   96700    297.13337   -16459.839    2109.2835   -12438.333    38.372524    196540.95 
   96800    295.52062   -16430.363    2106.6223   -12421.898    133.70573    197626.77 
   96900    302.15801   -16441.811    2081.7699   -12415.483    62.257488    198655.81 
   97000    298.49122   -16435.191    2082.2099   -12432.021    14.190213    198061.45 
   97100    299.98133   -16465.445    2097.0276   -12437.867    34.068029    197301.45 
   97200    297.39335   -16428.924    2093.3098   -12421.719    129.25523    197942.44 
   97300    303.58558   -16460.912    2094.4027   -12412.763    80.695093    197554.11 
   97400    294.23902   -16445.353    2105.9632   -12445.794     92.83827    195552.31 
   97500    300.50913   -16453.317    2083.9378   -12435.432     69.72778    196440.68 
   97600    299.59498   -16454.423    2098.6972   -12427.661    154.36303    197567.09 
   97700    296.60345   -16428.266    2110.9623   -12408.492    34.771524    199033.29 
   97800    296.74952   -16457.466    2103.9309   -12443.783    60.491907    196954.31 
   97900    294.44067   -16472.772    2122.0727   -12455.806    24.620122    195926.96 
   98000    300.28478    -16445.24    2078.4042   -12434.332    83.397279    196632.57 
   98100    301.75181   -16461.454    2099.2275   -12420.282    22.995669    196685.21 
   98200    296.50171   -16452.507    2122.8611   -12421.489     97.33041    195890.48 
   98300    304.45579   -16477.753    2074.7852   -12443.621    1.7957602    194686.26 
   98400    300.68014   -16473.704    2100.2121   -12438.444    34.029974    195580.17 
   98500    295.70915   -16478.394    2145.1735   -12430.164    8.1212883    196205.98 
   98600    299.31252   -16470.994    2130.1667   -12414.581    94.720264    197203.34 
   98700    307.52547   -16465.135    2065.1703   -12420.863   -67.458109     196836.6 
   98800    306.90979   -16478.644    2061.7348    -12441.77    120.11359    195390.31 
   98900    297.00288     -16466.6     2109.317     -12445.9    47.761284    195459.55 
   99000    292.26216   -16427.247    2102.4784   -12443.895     42.69172    196412.06 
   99100     299.3521   -16463.551     2088.679   -12448.371    6.2016662    195995.37 
   99200    294.85605   -16449.959    2107.3126    -12445.08    11.929515    196089.59 
   99300    304.38187     -16429.6    2053.2865   -12417.443    20.615546    197324.59 
   99400    298.97867   -16441.455    2111.6117   -12405.745     48.21186    198009.76 
   99500    300.71525   -16468.744    2116.5656   -12416.905    66.707094    197664.16 
   99600     304.6456   -16461.239    2067.8743   -12432.797     99.86286     197762.8 
   99700    298.30447   -16423.638    2071.4693    -12432.41    103.35119    198040.35 
   99800    292.42705   -16392.722    2108.4473    -12402.34      65.1543     199019.8 
   99900    298.73348   -16398.777    2109.7487   -12366.509   -12.657967     200749.3 
  100000    305.40902   -16412.807    2066.6261     -12380.7     39.59116    199244.62 
  100100    300.70916   -16450.747    2101.8982   -12413.614    84.290662    196974.97 
  100200    300.86012   -16465.095    2092.9353   -12435.953    31.519935    195913.39 
  100300    294.91973   -16429.797    2109.4317   -12422.389    59.666194    197058.65 
  100400    300.94214   -16435.701    2091.2976    -12407.67    58.185196    197695.24 
  100500     298.7337   -16433.144    2106.3622    -12404.26     69.48546    198468.59 
  100600    300.09335   -16422.183    2103.3852   -12387.527   -31.006898    200565.78 
  100700    296.89689   -16428.414    2112.5801   -12405.134    45.069866    199854.67 
  100800    303.69995   -16453.658    2073.2488   -12425.927     20.73317    198296.86 
  100900    299.16713    -16444.43    2095.6108   -12423.509    38.056948    198504.59 
  101000    296.89627   -16455.244    2108.9205   -12435.627    12.604507    197577.93 
  101100    299.44273   -16480.054    2087.8905   -12465.079    138.47336     195420.7 
  101200    299.11092   -16491.514     2075.959   -12490.606    17.232214    193652.27 
  101300    301.12561   -16481.966    2081.4287   -12462.623   -45.286502     194975.6 
  101400    296.88013   -16463.103    2088.6458   -12463.865    12.799805    195151.17 
  101500     299.2251   -16426.786    2075.6126    -12425.49    100.51821     197690.3 
  101600    295.62228   -16364.583    2090.8026   -12371.283    26.506631     200715.1 
  101700    302.60441   -16378.271     2074.627   -12356.212      63.4696    200616.83 
  101800     303.4082   -16416.898    2070.5238    -12393.77   -28.073415    197877.91 
  101900     307.0569   -16466.533    2048.0978   -12442.349     152.2616    195366.71 
  102000    298.86525   -16449.999      2096.16   -12430.471    102.05907     197040.6 
  102100    303.21834   -16452.123    2078.5024   -12422.238    11.172418    197788.55 
  102116    300.80673   -16442.253    2079.8733   -12426.517    17.526953    197541.78 
Loop time of 427.119 on 1 procs for 100000 steps with 2160 atoms

Performance: 20.229 ns/day, 1.186 hours/ns, 234.127 timesteps/s
100.0% CPU use with 1 MPI tasks x no OpenMP threads

MPI task timing breakdown:
Section |  min time  |  avg time  |  max time  |%varavg| %total
---------------------------------------------------------------
Pair    | 134.77     | 134.77     | 134.77     |   0.0 | 31.55
Bond    | 77.868     | 77.868     | 77.868     |   0.0 | 18.23
Kspace  | 131.17     | 131.17     | 131.17     |   0.0 | 30.71
Neigh   | 9.3484     | 9.3484     | 9.3484     |   0.0 |  2.19
Comm    | 2.3566     | 2.3566     | 2.3566     |   0.0 |  0.55
Output  | 0.28564    | 0.28564    | 0.28564    |   0.0 |  0.07
Modify  | 70.25      | 70.25      | 70.25      |   0.0 | 16.45
Other   |            | 1.071      |            |       |  0.25

Nlocal:        2160.00 ave        2160 max        2160 min
Histogram: 1 0 0 0 0 0 0 0 0 0
Nghost:        4375.00 ave        4375 max        4375 min
Histogram: 1 0 0 0 0 0 0 0 0 0
Neighs:        109703.0 ave      109703 max      109703 min
Histogram: 1 0 0 0 0 0 0 0 0 0

Total # of neighbors = 109703
Ave neighs/atom = 50.788426
Ave special neighs/atom = 6.6000000
Neighbor list builds = 2455
Dangerous builds = 0

write_data   system_after_npt.data
System init for write_data ...
PPPM initialization ...
  using 12-bit tables for long-range coulomb (../kspace.cpp:340)
  G vector (1/distance) = 0.2057348
  grid = 18 18 18
  stencil order = 5
  estimated absolute RMS force accuracy = 0.030298784
  estimated relative force accuracy = 9.1243888e-05
  using double precision KISS FFT
  3d grid and FFT values/proc = 12167 5832
Total wall time: 0:07:17
