LAMMPS (31 Aug 2021)
# PREREQUISITES:
#
#   1) You must use moltemplate.sh to create 3 files:
#        system.data  system.in.init  system.in.settings
#      (Follow the instructions in README_setup.sh,
#       or run the file as a script using ./README_setup.sh)
#   2) You must equilibrate the system beforehand using "run.in.npt".
#      This will create the file "system_after_npt.data" which this file reads.
#      (Note: I have not verified that this equilibration protocol works well.)

# ------------------------------- Initialization Section --------------------

include         system.in.init
    units real
    atom_style full
    bond_style harmonic
    angle_style harmonic
    dihedral_style opls
    improper_style harmonic
    pair_style lj/cut/coul/long 11.0 11.0
      # (Note to self: The pair_style used by OPLSAA/M (2015) is:
      #                lj/charmm/coul/long 9.0 11.0
      #                ...so this will have to be updated eventually.)
    pair_modify mix geometric
    special_bonds lj/coul 0.0 0.0 0.5
    kspace_style pppm 0.0001

# ------------------------------- Atom Definition Section -------------------


# Read the coordinates generated by an earlier NPT simulation

read_data       system_after_npt.data
Reading data file ...
  orthogonal box = (-6.8227339 -7.1818252 -7.1818252) to (25.822734 27.181825 27.181825)
  1 by 1 by 1 MPI processor grid
  reading atoms ...
  2125 atoms
  reading velocities ...
  2125 velocities
  scanning bonds ...
  3 = max bonds/atom
  scanning angles ...
  6 = max angles/atom
  scanning dihedrals ...
  9 = max dihedrals/atom
  reading bonds ...
  2000 bonds
  reading angles ...
  2625 angles
  reading dihedrals ...
  4000 dihedrals
Finding 1-2 1-3 1-4 neighbors ...
  special bond factors lj:    0        0        0.5     
  special bond factors coul:  0        0        0.5     
     4 = max # of 1-2 neighbors
     7 = max # of 1-3 neighbors
    14 = max # of 1-4 neighbors
    15 = max # of special neighbors
  special bonds CPU = 0.001 seconds
  read_data CPU = 0.026 seconds

# (The "write_restart" and "read_restart" commands were buggy in 2012,
#  but they should work also.  I prefer "write_data" and "read_data".)


# ------------------------------- Settings Section --------------------------

include         system.in.settings
    pair_coeff 1 1  0.061 2.94
    pair_coeff 2 2  0.118 3.905
    pair_coeff 3 3  0.105 3.75
    pair_coeff 4 4  0.21 2.96
    pair_coeff 5 5  0.17 3.0
    pair_coeff 6 6  0.16 3.91
    pair_coeff 7 7  0.0 0.0
    pair_coeff 8 8  0.294 3.73
    pair_coeff 9 9  0.207 3.775
    pair_coeff 10 10  0.175 3.905
    pair_coeff 11 11  0.16 3.91
    pair_coeff 12 12  0.145 3.96
    pair_coeff 13 13  0.118 3.905
    pair_coeff 14 14  0.14 3.85
    pair_coeff 15 15  0.08 3.85
    pair_coeff 16 16  0.115 3.8
    pair_coeff 17 17  0.11 3.75
    pair_coeff 18 18  0.05 3.8
    pair_coeff 19 19  0.105 3.75
    pair_coeff 20 20  0.17 3.07
    pair_coeff 21 21  0.0 0.0
    pair_coeff 22 22  0.207 3.775
    pair_coeff 23 23  0.118 3.905
    pair_coeff 24 24  0.25 3.7
    pair_coeff 25 25  0.25 3.55
    pair_coeff 26 26  0.25 3.55
    pair_coeff 27 27  0.25 3.55
    pair_coeff 28 28  0.0 0.0
    pair_coeff 29 29  0.0 0.0
    pair_coeff 30 30  0.207 3.775
    pair_coeff 31 31  0.118 3.905
    pair_coeff 32 32  0.17 3.8
    pair_coeff 33 33  0.118 3.8
    pair_coeff 34 34  0.17 3.8
    pair_coeff 35 35  0.118 3.8
    pair_coeff 36 36  0.17 3.2
    pair_coeff 37 37  0.15 3.65
    pair_coeff 38 38  0.207 3.775
    pair_coeff 39 39  0.08 3.85
    pair_coeff 40 40  0.05 3.8
    pair_coeff 41 41  0.17 3.0
    pair_coeff 42 42  0.17 3.8
    pair_coeff 43 43  0.118 3.8
    pair_coeff 44 44  0.118 3.8
    pair_coeff 45 45  0.3 3.4
    pair_coeff 46 46  0.08 3.8
    pair_coeff 47 47  0.3 3.47
    pair_coeff 48 48  0.05 3.8
    pair_coeff 49 49  0.266 3.47
    pair_coeff 50 50  0.395 3.56
    pair_coeff 51 51  0.28 2.93
    pair_coeff 52 52  0.16 3.81
    pair_coeff 53 53  0.21 2.96
    pair_coeff 54 54  0.17 3.25
    pair_coeff 55 55  0.115 3.8
    pair_coeff 56 56  0.17 3.8
    pair_coeff 57 57  0.0 0.0
    pair_coeff 58 58  0.02 2.556
    pair_coeff 59 59  0.069 2.78
    pair_coeff 60 60  0.2339 3.401
    pair_coeff 61 61  0.317 3.624
    pair_coeff 62 62  0.433 3.935
    pair_coeff 63 63  0.1521 3.15061
    pair_coeff 64 64  0.0 0.0
    pair_coeff 65 65  0.155 3.15365
    pair_coeff 66 66  0.0 0.0
    pair_coeff 67 67  0.0 0.0
    pair_coeff 68 68  0.15 3.176
    pair_coeff 69 69  0.0 0.0
    pair_coeff 70 70  0.1 3.27
    pair_coeff 71 71  0.0 0.0
    pair_coeff 72 72  0.0 0.0
    pair_coeff 73 73  0.16 3.12
    pair_coeff 74 74  0.0 0.0
    pair_coeff 75 75  0.0 0.0
    pair_coeff 76 76  0.1554 3.16557
    pair_coeff 77 77  0.0 0.0
    pair_coeff 78 78  0.17 3.42
    pair_coeff 79 79  0.0 0.0
    pair_coeff 80 80  0.066 3.5
    pair_coeff 81 81  0.066 3.5
    pair_coeff 82 82  0.066 3.5
    pair_coeff 83 83  0.066 3.5
    pair_coeff 84 84  0.066 3.5
    pair_coeff 85 85  0.03 2.5
    pair_coeff 86 86  0.076 3.55
    pair_coeff 87 87  0.076 3.55
    pair_coeff 88 88  0.076 3.55
    pair_coeff 89 89  0.03 2.42
    pair_coeff 90 90  0.07 3.55
    pair_coeff 91 91  0.03 2.42
    pair_coeff 92 92  0.07 3.55
    pair_coeff 93 93  0.066 3.5
    pair_coeff 94 94  0.066 3.5
    pair_coeff 95 95  0.076 3.55
    pair_coeff 96 96  0.17 3.12
    pair_coeff 97 97  0.0 0.0
    pair_coeff 98 98  0.03 2.5
    pair_coeff 99 99  0.066 3.5
    pair_coeff 100 100  0.066 3.5
    pair_coeff 101 101  0.066 3.5
    pair_coeff 102 102  0.066 3.5
    pair_coeff 103 103  0.062 3.25
    pair_coeff 104 104  0.17 3.07
    pair_coeff 105 105  0.0 0.0
    pair_coeff 106 106  0.061 2.94
    pair_coeff 107 107  0.03 2.5
    pair_coeff 108 108  0.07 3.55
    pair_coeff 109 109  0.17 3.07
    pair_coeff 110 110  0.0 0.0
    pair_coeff 111 111  0.17 3.07
    pair_coeff 112 112  0.0 0.0
    pair_coeff 113 113  0.17 3.07
    pair_coeff 114 114  0.0 0.0
    pair_coeff 115 115  0.066 3.5
    pair_coeff 116 116  0.066 3.5
    pair_coeff 117 117  0.066 3.5
    pair_coeff 118 118  0.03 2.5
    pair_coeff 119 119  0.14 2.9
    pair_coeff 120 120  0.076 3.55
    pair_coeff 121 121  0.14 2.9
    pair_coeff 122 122  0.14 2.9
    pair_coeff 123 123  0.066 3.5
    pair_coeff 124 124  0.066 3.5
    pair_coeff 125 125  0.066 3.5
    pair_coeff 126 126  0.066 3.5
    pair_coeff 127 127  0.03 2.5
    pair_coeff 128 128  0.14 2.9
    pair_coeff 129 129  0.17 3.07
    pair_coeff 130 130  0.0 0.0
    pair_coeff 131 131  0.066 3.5
    pair_coeff 132 132  0.03 2.5
    pair_coeff 133 133  0.066 3.5
    pair_coeff 134 134  0.03 2.5
    pair_coeff 135 135  0.066 3.5
    pair_coeff 136 136  0.03 2.5
    pair_coeff 137 137  0.066 3.5
    pair_coeff 138 138  0.03 2.5
    pair_coeff 139 139  0.066 3.5
    pair_coeff 140 140  0.066 3.5
    pair_coeff 141 141  0.07 3.55
    pair_coeff 142 142  0.25 3.55
    pair_coeff 143 143  0.25 3.7
    pair_coeff 144 144  0.25 3.55
    pair_coeff 145 145  0.25 3.55
    pair_coeff 146 146  0.0 0.0
    pair_coeff 147 147  0.0 0.0
    pair_coeff 148 148  0.066 3.5
    pair_coeff 149 149  0.066 3.5
    pair_coeff 150 150  0.066 3.5
    pair_coeff 151 151  0.066 3.5
    pair_coeff 152 152  0.066 3.5
    pair_coeff 153 153  0.066 3.5
    pair_coeff 154 154  0.066 3.5
    pair_coeff 155 155  0.066 3.5
    pair_coeff 156 156  0.066 3.5
    pair_coeff 157 157  0.066 3.5
    pair_coeff 158 158  0.066 3.5
    pair_coeff 159 159  0.066 3.5
    pair_coeff 160 160  0.066 3.5
    pair_coeff 161 161  0.066 3.5
    pair_coeff 162 162  0.066 3.5
    pair_coeff 163 163  0.07 3.55
    pair_coeff 164 164  0.25 3.55
    pair_coeff 165 165  0.066 3.5
    pair_coeff 166 166  0.066 3.5
    pair_coeff 167 167  0.066 3.5
    pair_coeff 168 168  0.3 3.4
    pair_coeff 169 169  0.076 3.55
    pair_coeff 170 170  0.07 3.55
    pair_coeff 171 171  0.066 3.5
    pair_coeff 172 172  0.066 3.5
    pair_coeff 173 173  0.105 3.75
    pair_coeff 174 174  0.105 3.75
    pair_coeff 175 175  0.105 3.75
    pair_coeff 176 176  0.105 3.75
    pair_coeff 177 177  0.105 3.75
    pair_coeff 178 178  0.21 2.96
    pair_coeff 179 179  0.17 3.25
    pair_coeff 180 180  0.17 3.25
    pair_coeff 181 181  0.17 3.25
    pair_coeff 182 182  0.0 0.0
    pair_coeff 183 183  0.0 0.0
    pair_coeff 184 184  0.066 3.5
    pair_coeff 185 185  0.066 3.5
    pair_coeff 186 186  0.066 3.5
    pair_coeff 187 187  0.066 3.5
    pair_coeff 188 188  0.066 3.5
    pair_coeff 189 189  0.105 3.75
    pair_coeff 190 190  0.21 2.96
    pair_coeff 191 191  0.17 3.25
    pair_coeff 192 192  0.0 0.0
    pair_coeff 193 193  0.17 3.25
    pair_coeff 194 194  0.105 3.75
    pair_coeff 195 195  0.21 2.96
    pair_coeff 196 196  0.0 0.0
    pair_coeff 197 197  0.02 2.5
    pair_coeff 198 198  0.066 3.5
    pair_coeff 199 199  0.066 3.5
    pair_coeff 200 200  0.066 3.5
    pair_coeff 201 201  0.066 3.5
    pair_coeff 202 202  0.07 3.55
    pair_coeff 203 203  0.15 3.65
    pair_coeff 204 204  0.17 3.2
    pair_coeff 205 205  0.07 3.55
    pair_coeff 206 206  0.3 3.4
    pair_coeff 207 207  0.17 3.25
    pair_coeff 208 208  0.07 3.55
    pair_coeff 209 209  0.105 3.75
    pair_coeff 210 210  0.21 2.96
    pair_coeff 211 211  0.17 3.0
    pair_coeff 212 212  0.0 0.0
    pair_coeff 213 213  0.105 3.75
    pair_coeff 214 214  0.21 2.96
    pair_coeff 215 215  0.066 3.5
    pair_coeff 216 216  0.066 3.5
    pair_coeff 217 217  0.066 3.5
    pair_coeff 218 218  0.066 3.5
    pair_coeff 219 219  0.105 3.75
    pair_coeff 220 220  0.21 2.96
    pair_coeff 221 221  0.015 2.42
    pair_coeff 222 222  0.105 3.75
    pair_coeff 223 223  0.21 2.96
    pair_coeff 224 224  0.015 2.42
    pair_coeff 225 225  0.066 3.5
    pair_coeff 226 226  0.066 3.5
    pair_coeff 227 227  0.066 3.5
    pair_coeff 228 228  0.066 3.5
    pair_coeff 229 229  0.17 3.25
    pair_coeff 230 230  0.17 3.25
    pair_coeff 231 231  0.17 3.25
    pair_coeff 232 232  0.0 0.0
    pair_coeff 233 233  0.0 0.0
    pair_coeff 234 234  0.066 3.5
    pair_coeff 235 235  0.066 3.5
    pair_coeff 236 236  0.066 3.5
    pair_coeff 237 237  0.066 3.5
    pair_coeff 238 238  0.066 3.5
    pair_coeff 239 239  0.066 3.5
    pair_coeff 240 240  0.066 3.5
    pair_coeff 241 241  0.066 3.5
    pair_coeff 242 242  0.066 3.5
    pair_coeff 243 243  0.17 3.25
    pair_coeff 244 244  0.0 0.0
    pair_coeff 245 245  0.05 3.55
    pair_coeff 246 246  0.17 3.25
    pair_coeff 247 247  0.0 0.0
    pair_coeff 248 248  0.066 3.5
    pair_coeff 249 249  0.066 3.5
    pair_coeff 250 250  0.066 3.5
    pair_coeff 251 251  0.066 3.5
    pair_coeff 252 252  0.17 3.25
    pair_coeff 253 253  0.0 0.0
    pair_coeff 254 254  0.17 3.25
    pair_coeff 255 255  0.08 3.5
    pair_coeff 256 256  0.17 3.25
    pair_coeff 257 257  0.0 0.0
    pair_coeff 258 258  0.08 3.5
    pair_coeff 259 259  0.05 2.5
    pair_coeff 260 260  0.08 3.5
    pair_coeff 261 261  0.05 2.5
    pair_coeff 262 262  0.17 3.25
    pair_coeff 263 263  0.105 3.75
    pair_coeff 264 264  0.17 3.25
    pair_coeff 265 265  0.105 3.75
    pair_coeff 266 266  0.08 3.5
    pair_coeff 267 267  0.08 3.5
    pair_coeff 268 268  0.0 0.0
    pair_coeff 269 269  0.21 2.96
    pair_coeff 270 270  0.0 0.0
    pair_coeff 271 271  0.21 2.96
    pair_coeff 272 272  0.05 2.5
    pair_coeff 273 273  0.05 2.5
    pair_coeff 274 274  0.08 3.5
    pair_coeff 275 275  0.05 2.5
    pair_coeff 276 276  0.17 3.25
    pair_coeff 277 277  0.105 3.75
    pair_coeff 278 278  0.17 3.25
    pair_coeff 279 279  0.08 3.5
    pair_coeff 280 280  0.08 3.5
    pair_coeff 281 281  0.08 3.5
    pair_coeff 282 282  0.0 0.0
    pair_coeff 283 283  0.21 2.96
    pair_coeff 284 284  0.17 3.25
    pair_coeff 285 285  0.0 0.0
    pair_coeff 286 286  0.0 0.0
    pair_coeff 287 287  0.05 2.5
    pair_coeff 288 288  0.05 2.5
    pair_coeff 289 289  0.17 3.25
    pair_coeff 290 290  0.08 3.5
    pair_coeff 291 291  0.17 3.25
    pair_coeff 292 292  0.08 3.5
    pair_coeff 293 293  0.08 3.5
    pair_coeff 294 294  0.08 3.5
    pair_coeff 295 295  0.17 3.25
    pair_coeff 296 296  0.08 3.5
    pair_coeff 297 297  0.17 3.25
    pair_coeff 298 298  0.05 2.5
    pair_coeff 299 299  0.17 3.25
    pair_coeff 300 300  0.0 0.0
    pair_coeff 301 301  0.0 0.0
    pair_coeff 302 302  0.05 2.5
    pair_coeff 303 303  0.0 0.0
    pair_coeff 304 304  0.17 3.25
    pair_coeff 305 305  0.08 3.5
    pair_coeff 306 306  0.17 3.25
    pair_coeff 307 307  0.08 3.5
    pair_coeff 308 308  0.08 3.5
    pair_coeff 309 309  0.105 3.75
    pair_coeff 310 310  0.0 0.0
    pair_coeff 311 311  0.17 3.25
    pair_coeff 312 312  0.0 0.0
    pair_coeff 313 313  0.21 2.96
    pair_coeff 314 314  0.08 3.5
    pair_coeff 315 315  0.05 2.5
    pair_coeff 316 316  0.08 3.5
    pair_coeff 317 317  0.05 2.5
    pair_coeff 318 318  0.08 3.5
    pair_coeff 319 319  0.05 2.5
    pair_coeff 320 320  0.17 3.25
    pair_coeff 321 321  0.105 3.75
    pair_coeff 322 322  0.17 3.25
    pair_coeff 323 323  0.08 3.5
    pair_coeff 324 324  0.08 3.5
    pair_coeff 325 325  0.08 3.5
    pair_coeff 326 326  0.0 0.0
    pair_coeff 327 327  0.21 2.96
    pair_coeff 328 328  0.0 0.0
    pair_coeff 329 329  0.17 3.25
    pair_coeff 330 330  0.0 0.0
    pair_coeff 331 331  0.0 0.0
    pair_coeff 332 332  0.05 2.5
    pair_coeff 333 333  0.05 2.5
    pair_coeff 334 334  0.08 3.5
    pair_coeff 335 335  0.05 2.5
    pair_coeff 336 336  0.2 3.74
    pair_coeff 337 337  0.21 2.96
    pair_coeff 338 338  0.17 3.0
    pair_coeff 339 339  0.066 3.55
    pair_coeff 340 340  0.08 3.5
    pair_coeff 341 341  0.3 3.4
    pair_coeff 342 342  0.076 3.55
    pair_coeff 343 343  0.71 3.05
    pair_coeff 344 344  0.71 4.02
    pair_coeff 345 345  0.71 4.28
    pair_coeff 346 346  0.71 4.81
    pair_coeff 347 347  0.0005 5.34
    pair_coeff 348 348  0.0005 2.87
    pair_coeff 349 349  0.0005 4.07
    pair_coeff 350 350  0.0005 5.17
    pair_coeff 351 351  0.0005 5.6
    pair_coeff 352 352  0.0005 6.2
    pair_coeff 353 353  0.875044 1.644471
    pair_coeff 354 354  0.449657 2.412031
    pair_coeff 355 355  0.118226 3.102688
    pair_coeff 356 356  0.047096 3.81661
    pair_coeff 357 357  0.3 4.2
    pair_coeff 358 358  0.05 2.5
    pair_coeff 359 359  0.5 4.25
    pair_coeff 360 360  0.3 4.2
    pair_coeff 361 361  0.05 2.5
    pair_coeff 362 362  0.25 3.15
    pair_coeff 363 363  0.3 4.2
    pair_coeff 364 364  0.05 2.5
    pair_coeff 365 365  0.15 3.65
    pair_coeff 366 366  0.25 3.4
    pair_coeff 367 367  0.3 4.2
    pair_coeff 368 368  0.05 2.5
    pair_coeff 369 369  0.25 3.4
    pair_coeff 370 370  0.05 2.5
    pair_coeff 371 371  0.3 4.2
    pair_coeff 372 372  0.05 2.5
    pair_coeff 373 373  0.3 4.2
    pair_coeff 374 374  0.05 2.5
    pair_coeff 375 375  0.0 0.0
    pair_coeff 376 376  0.25 3.2
    pair_coeff 377 377  0.0 0.0
    pair_coeff 378 378  0.4 2.81524
    pair_coeff 379 379  0.2 3.11815
    pair_coeff 380 380  0.14 2.9
    pair_coeff 381 381  0.2 3.74
    pair_coeff 382 382  0.2 3.15
    pair_coeff 383 383  0.14 2.9
    pair_coeff 384 384  0.066 3.5
    pair_coeff 385 385  0.03 2.5
    pair_coeff 386 386  0.2 3.74
    pair_coeff 387 387  0.2 3.15
    pair_coeff 388 388  0.14 2.9
    pair_coeff 389 389  0.066 3.5
    pair_coeff 390 390  0.03 2.5
    pair_coeff 391 391  0.2 3.74
    pair_coeff 392 392  0.2 3.15
    pair_coeff 393 393  0.14 2.9
    pair_coeff 394 394  0.066 3.5
    pair_coeff 395 395  0.03 2.5
    pair_coeff 396 396  0.066 3.5
    pair_coeff 397 397  0.03 2.5
    pair_coeff 398 398  0.07 3.55
    pair_coeff 399 399  0.066 3.5
    pair_coeff 400 400  0.03 2.5
    pair_coeff 401 401  0.07 3.55
    pair_coeff 402 402  0.066 3.5
    pair_coeff 403 403  0.03 2.5
    pair_coeff 404 404  0.07 3.55
    pair_coeff 405 405  0.066 3.5
    pair_coeff 406 406  0.105 3.75
    pair_coeff 407 407  0.21 2.96
    pair_coeff 408 408  0.17 3.0
    pair_coeff 409 409  0.066 3.5
    pair_coeff 410 410  0.015 2.42
    pair_coeff 411 411  0.105 3.75
    pair_coeff 412 412  0.105 3.75
    pair_coeff 413 413  0.07 3.55
    pair_coeff 414 414  0.17 3.0
    pair_coeff 415 415  0.25 3.55
    pair_coeff 416 416  0.17 2.96
    pair_coeff 417 417  0.066 3.5
    pair_coeff 418 418  0.03 2.5
    pair_coeff 419 419  0.17 3.25
    pair_coeff 420 420  0.0 0.0
    pair_coeff 421 421  0.17 3.25
    pair_coeff 422 422  0.0 0.0
    pair_coeff 423 423  0.066 3.5
    pair_coeff 424 424  0.03 2.5
    pair_coeff 425 425  0.066 3.5
    pair_coeff 426 426  0.03 2.5
    pair_coeff 427 427  0.066 3.5
    pair_coeff 428 428  0.03 2.5
    pair_coeff 429 429  0.07 3.55
    pair_coeff 430 430  0.07 3.55
    pair_coeff 431 431  0.066 3.5
    pair_coeff 432 432  0.066 3.5
    pair_coeff 433 433  0.066 3.5
    pair_coeff 434 434  0.25 3.55
    pair_coeff 435 435  0.17 2.96
    pair_coeff 436 436  0.395 3.56
    pair_coeff 437 437  0.395 3.56
    pair_coeff 438 438  0.28 2.93
    pair_coeff 439 439  0.066 3.5
    pair_coeff 440 440  0.066 3.5
    pair_coeff 441 441  0.07 3.55
    pair_coeff 442 442  0.07 3.55
    pair_coeff 443 443  0.07 3.55
    pair_coeff 444 444  0.17 3.25
    pair_coeff 445 445  0.0 0.0
    pair_coeff 446 446  0.066 3.5
    pair_coeff 447 447  0.07 3.55
    pair_coeff 448 448  0.07 3.55
    pair_coeff 449 449  0.07 3.55
    pair_coeff 450 450  0.07 3.55
    pair_coeff 451 451  0.07 3.55
    pair_coeff 452 452  0.17 3.25
    pair_coeff 453 453  0.17 3.25
    pair_coeff 454 454  0.0 0.0
    pair_coeff 455 455  0.07 3.55
    pair_coeff 456 456  0.066 3.5
    pair_coeff 457 457  0.066 3.5
    pair_coeff 458 458  0.076 3.55
    pair_coeff 459 459  0.076 3.55
    pair_coeff 460 460  0.07 3.55
    pair_coeff 461 461  0.17 3.25
    pair_coeff 462 462  0.07 3.55
    pair_coeff 463 463  0.07 3.55
    pair_coeff 464 464  0.07 3.55
    pair_coeff 465 465  0.03 2.42
    pair_coeff 466 466  0.03 2.42
    pair_coeff 467 467  0.03 2.42
    pair_coeff 468 468  0.17 3.25
    pair_coeff 469 469  0.07 3.55
    pair_coeff 470 470  0.03 2.42
    pair_coeff 471 471  0.17 3.25
    pair_coeff 472 472  0.07 3.55
    pair_coeff 473 473  0.07 3.55
    pair_coeff 474 474  0.07 3.55
    pair_coeff 475 475  0.03 2.42
    pair_coeff 476 476  0.03 2.42
    pair_coeff 477 477  0.03 2.42
    pair_coeff 478 478  0.17 3.25
    pair_coeff 479 479  0.07 3.55
    pair_coeff 480 480  0.07 3.55
    pair_coeff 481 481  0.03 2.42
    pair_coeff 482 482  0.03 2.42
    pair_coeff 483 483  0.17 3.25
    pair_coeff 484 484  0.07 3.55
    pair_coeff 485 485  0.07 3.55
    pair_coeff 486 486  0.0 0.0
    pair_coeff 487 487  0.03 2.42
    pair_coeff 488 488  0.03 2.42
    pair_coeff 489 489  0.17 3.25
    pair_coeff 490 490  0.17 3.25
    pair_coeff 491 491  0.07 3.55
    pair_coeff 492 492  0.07 3.55
    pair_coeff 493 493  0.07 3.55
    pair_coeff 494 494  0.0 0.0
    pair_coeff 495 495  0.03 2.42
    pair_coeff 496 496  0.03 2.42
    pair_coeff 497 497  0.03 2.42
    pair_coeff 498 498  0.17 3.25
    pair_coeff 499 499  0.07 3.55
    pair_coeff 500 500  0.17 3.25
    pair_coeff 501 501  0.07 3.55
    pair_coeff 502 502  0.07 3.55
    pair_coeff 503 503  0.0 0.0
    pair_coeff 504 504  0.03 2.42
    pair_coeff 505 505  0.03 2.42
    pair_coeff 506 506  0.03 2.42
    pair_coeff 507 507  0.14 2.9
    pair_coeff 508 508  0.07 3.55
    pair_coeff 509 509  0.076 3.55
    pair_coeff 510 510  0.03 2.42
    pair_coeff 511 511  0.03 2.42
    pair_coeff 512 512  0.14 2.9
    pair_coeff 513 513  0.07 3.55
    pair_coeff 514 514  0.17 3.25
    pair_coeff 515 515  0.07 3.55
    pair_coeff 516 516  0.07 3.55
    pair_coeff 517 517  0.03 2.42
    pair_coeff 518 518  0.03 2.42
    pair_coeff 519 519  0.03 2.42
    pair_coeff 520 520  0.14 2.9
    pair_coeff 521 521  0.17 3.25
    pair_coeff 522 522  0.07 3.55
    pair_coeff 523 523  0.07 3.55
    pair_coeff 524 524  0.07 3.55
    pair_coeff 525 525  0.03 2.42
    pair_coeff 526 526  0.03 2.42
    pair_coeff 527 527  0.03 2.42
    pair_coeff 528 528  0.17 3.25
    pair_coeff 529 529  0.07 3.55
    pair_coeff 530 530  0.07 3.55
    pair_coeff 531 531  0.07 3.55
    pair_coeff 532 532  0.07 3.55
    pair_coeff 533 533  0.07 3.55
    pair_coeff 534 534  0.07 3.55
    pair_coeff 535 535  0.07 3.55
    pair_coeff 536 536  0.07 3.55
    pair_coeff 537 537  0.0 0.0
    pair_coeff 538 538  0.03 2.42
    pair_coeff 539 539  0.03 2.42
    pair_coeff 540 540  0.03 2.42
    pair_coeff 541 541  0.03 2.42
    pair_coeff 542 542  0.03 2.42
    pair_coeff 543 543  0.03 2.42
    pair_coeff 544 544  0.17 3.25
    pair_coeff 545 545  0.07 3.55
    pair_coeff 546 546  0.07 3.55
    pair_coeff 547 547  0.07 3.55
    pair_coeff 548 548  0.07 3.55
    pair_coeff 549 549  0.07 3.55
    pair_coeff 550 550  0.07 3.55
    pair_coeff 551 551  0.07 3.55
    pair_coeff 552 552  0.07 3.55
    pair_coeff 553 553  0.07 3.55
    pair_coeff 554 554  0.03 2.42
    pair_coeff 555 555  0.03 2.42
    pair_coeff 556 556  0.03 2.42
    pair_coeff 557 557  0.03 2.42
    pair_coeff 558 558  0.03 2.42
    pair_coeff 559 559  0.03 2.42
    pair_coeff 560 560  0.03 2.42
    pair_coeff 561 561  0.17 3.25
    pair_coeff 562 562  0.07 3.55
    pair_coeff 563 563  0.17 3.25
    pair_coeff 564 564  0.07 3.55
    pair_coeff 565 565  0.07 3.55
    pair_coeff 566 566  0.07 3.55
    pair_coeff 567 567  0.17 3.25
    pair_coeff 568 568  0.07 3.55
    pair_coeff 569 569  0.17 3.25
    pair_coeff 570 570  0.03 2.42
    pair_coeff 571 571  0.03 2.42
    pair_coeff 572 572  0.03 2.42
    pair_coeff 573 573  0.0 0.0
    pair_coeff 574 574  0.25 3.55
    pair_coeff 575 575  0.07 3.55
    pair_coeff 576 576  0.17 3.25
    pair_coeff 577 577  0.07 3.55
    pair_coeff 578 578  0.07 3.55
    pair_coeff 579 579  0.03 2.42
    pair_coeff 580 580  0.03 2.42
    pair_coeff 581 581  0.03 2.42
    pair_coeff 582 582  0.17 3.25
    pair_coeff 583 583  0.07 3.55
    pair_coeff 584 584  0.03 2.42
    pair_coeff 585 585  0.07 3.55
    pair_coeff 586 586  0.066 3.5
    pair_coeff 587 587  0.17 3.25
    pair_coeff 588 588  0.07 3.55
    pair_coeff 589 589  0.07 3.55
    pair_coeff 590 590  0.07 3.55
    pair_coeff 591 591  0.07 3.55
    pair_coeff 592 592  0.07 3.55
    pair_coeff 593 593  0.07 3.55
    pair_coeff 594 594  0.03 2.42
    pair_coeff 595 595  0.03 2.42
    pair_coeff 596 596  0.03 2.42
    pair_coeff 597 597  0.03 2.42
    pair_coeff 598 598  0.17 3.25
    pair_coeff 599 599  0.07 3.55
    pair_coeff 600 600  0.17 3.25
    pair_coeff 601 601  0.07 3.55
    pair_coeff 602 602  0.07 3.55
    pair_coeff 603 603  0.066 3.5
    pair_coeff 604 604  0.03 2.42
    pair_coeff 605 605  0.03 2.42
    pair_coeff 606 606  0.03 2.42
    pair_coeff 607 607  0.03 2.5
    pair_coeff 608 608  0.066 3.5
    pair_coeff 609 609  0.066 3.5
    pair_coeff 610 610  0.066 3.5
    pair_coeff 611 611  0.066 3.5
    pair_coeff 612 612  0.066 3.5
    pair_coeff 613 613  0.066 3.5
    pair_coeff 614 614  0.066 3.5
    pair_coeff 615 615  0.066 3.5
    pair_coeff 616 616  0.066 3.5
    pair_coeff 617 617  0.066 3.5
    pair_coeff 618 618  0.066 3.5
    pair_coeff 619 619  0.066 3.5
    pair_coeff 620 620  0.066 3.5
    pair_coeff 621 621  0.066 3.5
    pair_coeff 622 622  0.066 3.5
    pair_coeff 623 623  0.25 3.55
    pair_coeff 624 624  0.0 0.0
    pair_coeff 625 625  0.07 3.55
    pair_coeff 626 626  0.105 3.75
    pair_coeff 627 627  0.17 3.25
    pair_coeff 628 628  0.066 3.5
    pair_coeff 629 629  0.066 3.5
    pair_coeff 630 630  0.066 3.5
    pair_coeff 631 631  0.07 3.55
    pair_coeff 632 632  0.07 3.55
    pair_coeff 633 633  0.07 3.55
    pair_coeff 634 634  0.07 3.55
    pair_coeff 635 635  0.07 3.55
    pair_coeff 636 636  0.07 3.55
    pair_coeff 637 637  0.25 3.55
    pair_coeff 638 638  0.054 3.473
    pair_coeff 639 639  0.05 3.3
    pair_coeff 640 640  0.05 3.3
    pair_coeff 641 641  0.076 3.55
    pair_coeff 642 642  0.066 3.5
    pair_coeff 643 643  0.03 2.5
    pair_coeff 644 644  0.06 3.75
    pair_coeff 645 645  0.054 3.473
    pair_coeff 646 646  0.05 3.3
    pair_coeff 647 647  0.05 3.3
    pair_coeff 648 648  0.04 2.95
    pair_coeff 649 649  0.076 3.55
    pair_coeff 650 650  0.3 3.4
    pair_coeff 651 651  0.03 2.42
    pair_coeff 652 652  0.066 3.5
    pair_coeff 653 653  0.066 3.5
    pair_coeff 654 654  0.066 3.5
    pair_coeff 655 655  0.07 3.55
    pair_coeff 656 656  0.03 2.42
    pair_coeff 657 657  0.07 3.55
    pair_coeff 658 658  0.03 2.42
    pair_coeff 659 659  0.07 3.55
    pair_coeff 660 660  0.061 2.85
    pair_coeff 661 661  0.07 3.55
    pair_coeff 662 662  0.061 2.85
    pair_coeff 663 663  0.47 3.47
    pair_coeff 664 664  0.118 3.905
    pair_coeff 665 665  0.07 3.55
    pair_coeff 666 666  0.062 3.25
    pair_coeff 667 667  0.061 2.94
    pair_coeff 668 668  0.07 3.55
    pair_coeff 669 669  0.061 2.85
    pair_coeff 670 670  0.07 3.55
    pair_coeff 671 671  0.47 3.47
    pair_coeff 672 672  0.07 3.55
    pair_coeff 673 673  0.6 3.75
    pair_coeff 674 674  0.066 3.5
    pair_coeff 675 675  0.25 3.55
    pair_coeff 676 676  0.07 3.55
    pair_coeff 677 677  0.07 3.55
    pair_coeff 678 678  0.07 3.55
    pair_coeff 679 679  0.07 3.55
    pair_coeff 680 680  0.07 3.55
    pair_coeff 681 681  0.03 2.42
    pair_coeff 682 682  0.03 2.42
    pair_coeff 683 683  0.05 3.55
    pair_coeff 684 684  0.17 3.25
    pair_coeff 685 685  0.0 0.0
    pair_coeff 686 686  0.0 0.0
    pair_coeff 687 687  0.03 2.42
    pair_coeff 688 688  0.066 3.5
    pair_coeff 689 689  0.066 3.5
    pair_coeff 690 690  0.17 3.25
    pair_coeff 691 691  0.17 3.25
    pair_coeff 692 692  0.17 3.25
    pair_coeff 693 693  0.05 3.55
    pair_coeff 694 694  0.17 3.2
    pair_coeff 695 695  0.066 3.3
    pair_coeff 696 696  0.066 3.3
    pair_coeff 697 697  0.066 3.3
    pair_coeff 698 698  0.066 3.3
    pair_coeff 699 699  0.066 3.3
    pair_coeff 700 700  0.015 2.5
    pair_coeff 701 701  0.12 3.25
    pair_coeff 702 702  0.17 2.96
    pair_coeff 703 703  0.066 3.5
    pair_coeff 704 704  0.015 2.5
    pair_coeff 705 705  0.066 3.5
    pair_coeff 706 706  0.066 3.5
    pair_coeff 707 707  0.066 3.5
    pair_coeff 708 708  0.12 3.25
    pair_coeff 709 709  0.07 3.55
    pair_coeff 710 710  0.066 3.3
    pair_coeff 711 711  0.17 3.25
    pair_coeff 712 712  0.21 2.96
    pair_coeff 713 713  0.105 3.75
    pair_coeff 714 714  0.17 3.0
    pair_coeff 715 715  0.066 3.5
    pair_coeff 716 716  0.066 3.5
    pair_coeff 717 717  0.066 3.5
    pair_coeff 718 718  0.015 2.42
    pair_coeff 719 719  0.015 2.42
    pair_coeff 720 720  0.015 2.42
    pair_coeff 721 721  0.14 2.9
    pair_coeff 722 722  0.2 3.74
    pair_coeff 723 723  0.066 3.5
    pair_coeff 724 724  0.066 3.5
    pair_coeff 725 725  0.03 2.5
    pair_coeff 726 726  0.2 3.74
    pair_coeff 727 727  0.061 3.1181
    pair_coeff 728 728  0.17 3.15
    pair_coeff 729 729  0.21 2.86
    pair_coeff 730 730  0.17 3.3
    pair_coeff 731 731  0.17 3.3
    pair_coeff 732 732  0.17 3.3
    pair_coeff 733 733  0.066 3.5
    pair_coeff 734 734  0.066 3.5
    pair_coeff 735 735  0.066 3.5
    pair_coeff 736 736  0.066 3.5
    pair_coeff 737 737  0.066 3.5
    pair_coeff 738 738  0.066 3.5
    pair_coeff 739 739  0.0 0.0
    pair_coeff 740 740  0.0 0.0
    pair_coeff 741 741  0.015 2.5
    pair_coeff 742 742  0.066 3.5
    pair_coeff 743 743  0.066 3.5
    pair_coeff 744 744  0.066 3.5
    pair_coeff 745 745  0.066 3.5
    pair_coeff 746 746  0.07 3.55
    pair_coeff 747 747  0.07 3.55
    pair_coeff 748 748  0.07 3.55
    pair_coeff 749 749  0.066 3.5
    pair_coeff 750 750  0.066 3.5
    pair_coeff 751 751  0.066 3.5
    pair_coeff 752 752  0.066 3.5
    pair_coeff 753 753  0.066 3.5
    pair_coeff 754 754  0.066 3.5
    pair_coeff 755 755  0.086 3.3
    pair_coeff 756 756  0.015 2.42
    pair_coeff 757 757  0.21 3.3
    pair_coeff 758 758  0.135 3.3
    pair_coeff 759 759  0.1 3.3
    pair_coeff 760 760  0.015 2.5
    pair_coeff 761 761  0.066 3.5
    pair_coeff 762 762  0.066 3.5
    pair_coeff 763 763  0.066 3.5
    pair_coeff 764 764  0.17 3.12
    pair_coeff 765 765  0.0 0.0
    pair_coeff 766 766  0.17 3.25
    pair_coeff 767 767  0.17 3.25
    pair_coeff 768 768  0.17 3.25
    pair_coeff 769 769  0.21 3.3
    pair_coeff 770 770  0.17 3.25
    pair_coeff 771 771  0.0 0.0
    pair_coeff 772 772  0.066 3.5
    pair_coeff 773 773  0.066 3.5
    pair_coeff 774 774  0.066 3.5
    pair_coeff 775 775  0.066 3.5
    pair_coeff 776 776  0.07 3.55
    pair_coeff 777 777  0.076 3.55
    pair_coeff 778 778  0.07 3.55
    pair_coeff 779 779  0.07 3.55
    pair_coeff 780 780  0.03 2.5
    pair_coeff 781 781  0.066 3.5
    pair_coeff 782 782  0.105 3.75
    pair_coeff 783 783  0.17 3.25
    pair_coeff 784 784  0.21 2.96
    pair_coeff 785 785  0.0 0.0
    pair_coeff 786 786  0.061 2.94
    pair_coeff 787 787  0.066 3.5
    pair_coeff 788 788  0.03 2.5
    pair_coeff 789 789  0.066 3.5
    pair_coeff 790 790  0.066 3.5
    pair_coeff 791 791  0.066 3.5
    pair_coeff 792 792  0.066 3.5
    pair_coeff 793 793  0.066 3.5
    pair_coeff 794 794  0.097 3.5
    pair_coeff 795 795  0.053 2.95
    pair_coeff 796 796  0.062 3.25
    pair_coeff 797 797  0.03 2.5
    pair_coeff 798 798  0.066 3.5
    pair_coeff 799 799  0.066 3.5
    pair_coeff 800 800  0.3 3.4
    pair_coeff 801 801  0.066 3.5
    pair_coeff 802 802  0.03 2.5
    pair_coeff 803 803  0.066 3.5
    pair_coeff 804 804  0.066 3.5
    pair_coeff 805 805  0.47 3.47
    pair_coeff 806 806  0.066 3.5
    pair_coeff 807 807  0.03 2.5
    pair_coeff 808 808  0.066 3.5
    pair_coeff 809 809  0.066 3.5
    pair_coeff 810 810  0.061 2.94
    pair_coeff 811 811  0.3 3.4
    pair_coeff 812 812  0.47 3.47
    pair_coeff 813 813  0.07 3.55
    pair_coeff 814 814  0.14 2.9
    pair_coeff 815 815  0.066 3.5
    pair_coeff 816 816  0.06 2.9
    pair_coeff 817 817  0.17 3.25
    pair_coeff 818 818  0.07 3.55
    pair_coeff 819 819  0.066 3.5
    pair_coeff 820 820  0.105 3.75
    pair_coeff 821 821  0.105 3.75
    pair_coeff 822 822  0.21 2.96
    pair_coeff 823 823  0.17 3.25
    pair_coeff 824 824  0.0 0.0
    pair_coeff 825 825  0.17 3.12
    pair_coeff 826 826  0.0 0.0
    pair_coeff 827 827  0.066 3.5
    pair_coeff 828 828  0.066 3.5
    pair_coeff 829 829  0.07 3.55
    pair_coeff 830 830  0.07 3.55
    pair_coeff 831 831  0.07 3.55
    pair_coeff 832 832  0.07 3.55
    pair_coeff 833 833  0.07 3.55
    pair_coeff 834 834  0.0125 1.96
    pair_coeff 835 835  0.066 3.5
    pair_coeff 836 836  0.066 3.5
    pair_coeff 837 837  0.066 3.5
    pair_coeff 838 838  0.6 3.75
    pair_coeff 839 839  0.03 2.5
    pair_coeff 840 840  0.17 3.25
    pair_coeff 841 841  0.07 3.55
    pair_coeff 842 842  0.07 3.55
    pair_coeff 843 843  0.17 3.25
    pair_coeff 844 844  0.07 3.55
    pair_coeff 845 845  0.105 3.75
    pair_coeff 846 846  0.21 2.96
    pair_coeff 847 847  0.17 3.25
    pair_coeff 848 848  0.066 3.5
    pair_coeff 849 849  0.066 3.5
    pair_coeff 850 850  0.066 3.5
    pair_coeff 851 851  0.066 3.5
    pair_coeff 852 852  0.015 2.42
    pair_coeff 853 853  0.105 3.75
    pair_coeff 854 854  0.21 2.96
    pair_coeff 855 855  0.015 2.42
    pair_coeff 856 856  0.066 3.5
    pair_coeff 857 857  0.066 3.5
    pair_coeff 858 858  0.066 3.5
    pair_coeff 859 859  0.066 3.5
    pair_coeff 860 860  0.066 3.5
    pair_coeff 861 861  0.066 3.5
    pair_coeff 862 862  0.066 3.5
    pair_coeff 863 863  0.066 3.5
    pair_coeff 864 864  0.066 3.5
    pair_coeff 865 865  0.066 3.5
    pair_coeff 866 866  0.1 4.0
    pair_coeff 867 867  0.1 4.0
    pair_coeff 868 868  0.1 4.0
    pair_coeff 869 869  0.1 4.0
    pair_coeff 870 870  0.03 2.5
    pair_coeff 871 871  0.066 3.5
    pair_coeff 872 872  0.066 3.5
    pair_coeff 873 873  0.066 3.5
    pair_coeff 874 874  0.066 3.5
    pair_coeff 875 875  0.72 3.08
    pair_coeff 876 876  0.11779 4.18
    pair_coeff 877 877  0.09 4.51
    pair_coeff 878 878  0.07 5.15
    pair_coeff 879 879  0.018279 2.7
    pair_coeff 880 880  0.002772 3.35
    pair_coeff 881 881  0.000328 4.06
    pair_coeff 882 882  0.000171 4.32
    pair_coeff 883 883  8.1e-05 4.82
    pair_coeff 884 884  0.875044 2.91
    pair_coeff 885 885  0.449657 3.47
    pair_coeff 886 886  0.118226 3.82
    pair_coeff 887 887  0.047096 4.18
    pair_coeff 888 888  0.066 3.5
    pair_coeff 889 889  0.066 3.5
    pair_coeff 890 890  0.066 3.5
    pair_coeff 891 891  0.066 3.5
    pair_coeff 892 892  0.03 2.5
    pair_coeff 893 893  0.17 3.25
    pair_coeff 894 894  0.07 3.55
    pair_coeff 895 895  0.17 3.25
    pair_coeff 896 896  0.07 3.55
    pair_coeff 897 897  0.076 3.55
    pair_coeff 898 898  0.076 3.55
    pair_coeff 899 899  0.03 2.42
    pair_coeff 900 900  0.086 3.3
    pair_coeff 901 901  0.086 3.3
    pair_coeff 902 902  0.086 3.3
    pair_coeff 903 903  0.086 3.3
    pair_coeff 904 904  0.086 3.3
    pair_coeff 905 905  0.21 2.96
    pair_coeff 906 906  0.066 3.5
    bond_coeff 1  367.0 1.38
    bond_coeff 2  420.0 1.357
    bond_coeff 3  367.0 1.36
    bond_coeff 4  450.0 1.279
    bond_coeff 5  300.0 0.3
    bond_coeff 6  420.0 1.34
    bond_coeff 7  420.0 1.354
    bond_coeff 8  420.0 1.354
    bond_coeff 9  420.0 1.354
    bond_coeff 10  420.0 1.354
    bond_coeff 11  420.0 1.354
    bond_coeff 12  420.0 1.354
    bond_coeff 13  461.0 1.57
    bond_coeff 14  260.0 1.526
    bond_coeff 15  317.0 1.522
    bond_coeff 16  386.0 1.425
    bond_coeff 17  260.0 1.526
    bond_coeff 18  260.0 1.526
    bond_coeff 19  317.0 1.5
    bond_coeff 20  317.0 1.51
    bond_coeff 21  260.0 1.526
    bond_coeff 22  317.0 1.5
    bond_coeff 23  222.0 1.81
    bond_coeff 24  222.0 1.81
    bond_coeff 25  320.0 1.425
    bond_coeff 26  337.0 1.449
    bond_coeff 27  382.0 1.448
    bond_coeff 28  317.0 1.51
    bond_coeff 29  260.0 1.526
    bond_coeff 30  367.0 1.471
    bond_coeff 31  337.0 1.463
    bond_coeff 32  317.0 1.495
    bond_coeff 33  350.0 1.51
    bond_coeff 34  570.0 1.229
    bond_coeff 35  450.0 1.364
    bond_coeff 36  317.0 1.522
    bond_coeff 37  317.0 1.522
    bond_coeff 38  469.0 1.4
    bond_coeff 39  317.0 1.522
    bond_coeff 40  400.0 1.444
    bond_coeff 41  214.0 1.327
    bond_coeff 42  300.0 1.79
    bond_coeff 43  490.0 1.335
    bond_coeff 44  317.0 1.522
    bond_coeff 45  340.0 1.09
    bond_coeff 46  410.0 1.444
    bond_coeff 47  400.0 1.49
    bond_coeff 48  385.0 1.46
    bond_coeff 49  656.0 1.25
    bond_coeff 50  457.0 1.358
    bond_coeff 51  418.0 1.388
    bond_coeff 52  447.0 1.419
    bond_coeff 53  300.0 1.98
    bond_coeff 54  400.0 1.49
    bond_coeff 55  385.0 1.46
    bond_coeff 56  424.0 1.383
    bond_coeff 57  490.0 1.335
    bond_coeff 58  553.0 0.3
    bond_coeff 59  525.0 1.48
    bond_coeff 60  570.0 1.229
    bond_coeff 61  700.0 1.171
    bond_coeff 62  386.0 1.425
    bond_coeff 63  553.0 0.945
    bond_coeff 64  386.0 1.425
    bond_coeff 65  320.0 1.41
    bond_coeff 66  250.0 1.47
    bond_coeff 67  400.0 1.38
    bond_coeff 68  340.0 0.3
    bond_coeff 69  320.0 1.45
    bond_coeff 70  450.0 1.37
    bond_coeff 71  450.0 1.364
    bond_coeff 72  320.0 1.38
    bond_coeff 73  230.0 1.61
    bond_coeff 74  450.0 1.67
    bond_coeff 75  94.0 1.8
    bond_coeff 76  374.0 1.64
    bond_coeff 77  260.0 1.526
    bond_coeff 78  260.0 1.526
    bond_coeff 79  317.0 1.5
    bond_coeff 80  260.0 1.526
    bond_coeff 81  317.0 1.5
    bond_coeff 82  222.0 1.81
    bond_coeff 83  222.0 1.81
    bond_coeff 84  320.0 1.425
    bond_coeff 85  337.0 1.449
    bond_coeff 86  382.0 1.448
    bond_coeff 87  317.0 1.51
    bond_coeff 88  260.0 1.526
    bond_coeff 89  367.0 1.471
    bond_coeff 90  337.0 1.463
    bond_coeff 91  222.0 1.81
    bond_coeff 92  337.0 1.475
    bond_coeff 93  553.0 0.945
    bond_coeff 94  340.0 0.1
    bond_coeff 95  530.0 1.34
    bond_coeff 96  530.0 1.34
    bond_coeff 97  530.0 1.34
    bond_coeff 98  260.0 1.526
    bond_coeff 99  317.0 1.5
    bond_coeff 100  317.0 1.5
    bond_coeff 101  320.0 1.425
    bond_coeff 102  337.0 1.449
    bond_coeff 103  382.0 1.448
    bond_coeff 104  337.0 1.475
    bond_coeff 105  530.0 1.34
    bond_coeff 106  317.0 1.5
    bond_coeff 107  530.0 1.34
    bond_coeff 108  222.0 1.76
    bond_coeff 109  469.0 1.4
    bond_coeff 110  469.0 1.4
    bond_coeff 111  469.0 1.4
    bond_coeff 112  469.0 1.4
    bond_coeff 113  268.0 1.529
    bond_coeff 114  317.0 1.5
    bond_coeff 115  222.0 1.81
    bond_coeff 116  222.0 1.81
    bond_coeff 117  390.0 1.43
    bond_coeff 118  390.0 1.47
    bond_coeff 119  320.0 1.41
    bond_coeff 120  245.0 1.781
    bond_coeff 121  340.0 1.79
    bond_coeff 122  337.0 1.449
    bond_coeff 123  340.0 0.3
    bond_coeff 124  382.0 1.448
    bond_coeff 125  340.0 1.09
    bond_coeff 126  317.0 1.51
    bond_coeff 127  317.0 1.51
    bond_coeff 128  317.0 1.51
    bond_coeff 129  268.0 1.529
    bond_coeff 130  367.0 1.471
    bond_coeff 131  337.0 1.463
    bond_coeff 132  337.0 1.449
    bond_coeff 133  337.0 1.475
    bond_coeff 134  317.0 1.51
    bond_coeff 135  212.0 1.843
    bond_coeff 136  245.0 1.945
    bond_coeff 137  200.0 2.19
    bond_coeff 138  340.0 1.77
    bond_coeff 139  317.0 1.495
    bond_coeff 140  317.0 1.504
    bond_coeff 141  317.0 1.504
    bond_coeff 142  317.0 1.504
    bond_coeff 143  317.0 1.495
    bond_coeff 144  337.0 1.449
    bond_coeff 145  280.0 1.51
    bond_coeff 146  532.8 1.46
    bond_coeff 147  382.0 1.448
    bond_coeff 148  375.0 1.49
    bond_coeff 149  212.0 1.82
    bond_coeff 150  337.0 1.475
    bond_coeff 151  337.0 1.449
    bond_coeff 152  187.0 1.86
    bond_coeff 153  317.0 1.51
    bond_coeff 154  530.0 1.34
    bond_coeff 155  274.0 1.336
    bond_coeff 156  250.0 1.74
    bond_coeff 157  166.0 2.038
    bond_coeff 158  300.0 1.685
    bond_coeff 159  250.0 1.73
    bond_coeff 160  340.0 0.5
    bond_coeff 161  250.0 1.76
    bond_coeff 162  250.0 1.76
    bond_coeff 163  250.0 1.73
    bond_coeff 164  250.0 1.76
    bond_coeff 165  250.0 1.74
    bond_coeff 166  222.0 1.81
    bond_coeff 167  144.0 2.15
    bond_coeff 168  340.0 0.1
    bond_coeff 169  550.0 1.12
    bond_coeff 170  650.0 1.157
    bond_coeff 171  400.0 1.41
    bond_coeff 172  550.0 1.24
    bond_coeff 173  1150.0 1.21
    bond_coeff 174  330.0 1.637
    bond_coeff 175  420.0 1.08
    bond_coeff 176  400.0 1.426
    bond_coeff 177  400.0 1.451
    bond_coeff 178  400.0 1.426
    bond_coeff 179  330.0 1.784
    bond_coeff 180  400.0 1.451
    bond_coeff 181  400.0 1.451
    bond_coeff 182  250.0 1.47
    bond_coeff 183  200.0 1.69
    bond_coeff 184  320.0 1.45
    bond_coeff 185  340.0 0.3
    bond_coeff 186  320.0 1.45
    bond_coeff 187  450.0 1.37
    bond_coeff 188  450.0 1.364
    bond_coeff 189  320.0 1.38
    bond_coeff 190  340.0 1.36
    bond_coeff 191  462.0 1.399
    bond_coeff 192  230.0 1.61
    bond_coeff 193  462.0 1.357
    bond_coeff 194  340.0 1.36
    bond_coeff 195  374.0 1.64
    bond_coeff 196  300.0 0.3
    bond_coeff 197  300.0 1.725
    bond_coeff 198  300.0 1.725
    bond_coeff 199  300.0 1.725
    bond_coeff 200  300.0 1.725
    bond_coeff 201  300.0 1.725
    bond_coeff 202  300.0 1.725
    bond_coeff 203  300.0 1.725
    bond_coeff 204  223.0 2.02
    bond_coeff 205  700.0 1.53
    bond_coeff 206  340.0 0.5
    bond_coeff 207  340.0 0.3
    bond_coeff 208  700.0 1.44
    bond_coeff 209  367.0 0.3
    bond_coeff 210  434.0 1.01
    bond_coeff 211  427.0 1.381
    bond_coeff 212  427.0 1.381
    bond_coeff 213  434.0 1.67
    bond_coeff 214  427.0 1.381
    bond_coeff 215  427.0 1.381
    bond_coeff 216  337.0 1.449
    bond_coeff 217  500.0 1.27
    bond_coeff 218  40.0 2.05
    bond_coeff 219  340.0 0.3
    bond_coeff 220  340.0 0.3
    bond_coeff 221  340.0 0.1
    bond_coeff 222  340.0 0.3
    bond_coeff 223  340.0 0.3
    bond_coeff 224  367.0 0.3
    bond_coeff 225  340.0 0.3
    bond_coeff 226  340.0 0.3
    bond_coeff 227  367.0 0.3
    bond_coeff 228  367.0 0.3
    bond_coeff 229  300.0 0.3
    bond_coeff 230  340.0 0.1
    bond_coeff 231  600.0 0.9572
    bond_coeff 232  900.0 0.15
    bond_coeff 233  40.0 2.05
    bond_coeff 234  529.6 0.9572
    bond_coeff 235  600.0 0.9572
    bond_coeff 236  900.0 0.175
    bond_coeff 237  600.0 0.9572
    bond_coeff 238  900.0 0.7
    bond_coeff 239  600.0 1.0
    bond_coeff 240  350.0 1.445
    bond_coeff 241  434.0 1.01
    bond_coeff 242  481.0 1.34
    bond_coeff 243  340.0 1.77
    bond_coeff 244  382.0 1.448
    bond_coeff 245  266.0 1.74
    bond_coeff 246  434.0 1.01
    bond_coeff 247  434.0 1.01
    bond_coeff 248  434.0 1.01
    bond_coeff 249  434.0 1.01
    bond_coeff 250  434.0 1.01
    bond_coeff 251  434.0 1.01
    bond_coeff 252  166.0 1.48
    bond_coeff 253  340.0 1.08
    bond_coeff 254  340.0 1.08
    bond_coeff 255  340.0 1.09
    bond_coeff 256  340.0 1.08
    bond_coeff 257  340.0 1.088
    bond_coeff 258  532.8 1.084
    bond_coeff 259  166.0 1.48
    bond_coeff 260  340.0 1.08
    bond_coeff 261  549.0 1.34
    bond_coeff 262  427.0 1.433
    bond_coeff 263  549.0 1.34
    bond_coeff 264  448.0 1.365
    bond_coeff 265  367.0 1.08
    bond_coeff 266  300.0 1.9
    bond_coeff 267  250.0 2.08
    bond_coeff 268  385.0 1.46
    bond_coeff 269  317.0 1.51
    bond_coeff 270  448.0 1.365
    bond_coeff 271  700.0 1.305
    bond_coeff 272  469.0 1.4
    bond_coeff 273  367.0 1.08
    bond_coeff 274  427.0 1.433
    bond_coeff 275  400.0 1.45
    bond_coeff 276  481.0 1.34
    bond_coeff 277  483.0 1.339
    bond_coeff 278  427.0 1.381
    bond_coeff 279  469.0 1.404
    bond_coeff 280  414.0 1.391
    bond_coeff 281  220.0 1.78
    bond_coeff 282  300.0 1.87
    bond_coeff 283  250.0 2.08
    bond_coeff 284  340.0 1.77
    bond_coeff 285  469.0 1.4
    bond_coeff 286  546.0 1.367
    bond_coeff 287  469.0 1.4
    bond_coeff 288  469.0 1.421
    bond_coeff 289  317.0 1.49
    bond_coeff 290  382.0 1.385
    bond_coeff 291  400.0 1.46
    bond_coeff 292  427.0 1.433
    bond_coeff 293  367.0 1.08
    bond_coeff 294  340.0 1.08
    bond_coeff 295  367.0 1.08
    bond_coeff 296  367.0 1.08
    bond_coeff 297  367.0 1.08
    bond_coeff 298  367.0 1.08
    bond_coeff 299  367.0 1.08
    bond_coeff 300  367.0 1.08
    bond_coeff 301  385.0 1.46
    bond_coeff 302  457.0 1.29
    bond_coeff 303  549.0 1.365
    bond_coeff 304  385.0 1.46
    bond_coeff 305  337.0 1.475
    bond_coeff 306  525.0 1.48
    bond_coeff 307  434.0 1.01
    bond_coeff 308  434.0 1.01
    bond_coeff 309  481.0 1.34
    bond_coeff 310  481.0 1.34
    bond_coeff 311  500.0 1.32
    bond_coeff 312  502.0 1.324
    bond_coeff 313  461.0 1.354
    bond_coeff 314  461.0 1.354
    bond_coeff 315  483.0 1.339
    bond_coeff 316  550.0 1.21
    bond_coeff 317  457.0 1.29
    bond_coeff 318  436.0 1.374
    bond_coeff 319  400.0 1.349
    bond_coeff 320  440.0 1.371
    bond_coeff 321  428.0 1.38
    bond_coeff 322  477.0 1.343
    bond_coeff 323  427.0 1.381
    bond_coeff 324  427.0 1.381
    bond_coeff 325  385.0 1.44
    bond_coeff 326  367.0 1.08
    bond_coeff 327  367.0 1.08
    bond_coeff 328  367.0 1.08
    bond_coeff 329  520.0 1.37
    bond_coeff 330  414.0 1.391
    bond_coeff 331  388.0 1.459
    bond_coeff 332  447.0 1.419
    bond_coeff 333  469.0 1.424
    bond_coeff 334  436.0 1.374
    bond_coeff 335  400.0 1.28
    bond_coeff 336  529.0 1.304
    bond_coeff 337  488.0 1.335
    bond_coeff 338  410.0 1.394
    bond_coeff 339  410.0 1.394
    bond_coeff 340  410.0 1.32
    bond_coeff 341  367.0 1.08
    bond_coeff 342  440.0 1.371
    bond_coeff 343  367.0 1.08
    bond_coeff 344  108.0 2.25
    bond_coeff 345  300.0 1.87
    bond_coeff 346  300.0 1.87
    bond_coeff 347  300.0 1.87
    bond_coeff 348  300.0 1.87
    bond_coeff 349  300.0 1.87
    bond_coeff 350  151.0 2.19
    bond_coeff 351  250.0 2.08
    bond_coeff 352  250.0 2.08
    bond_coeff 353  250.0 2.08
    bond_coeff 354  250.0 2.08
    bond_coeff 355  250.0 2.08
    bond_coeff 356  108.0 2.44
    bond_coeff 357  500.0 1.8
    bond_coeff 358  546.0 1.352
    bond_coeff 359  385.0 1.46
    bond_coeff 360  520.0 1.37
    bond_coeff 361  520.0 1.37
    bond_coeff 362  385.0 1.46
    bond_coeff 363  512.0 1.375
    bond_coeff 364  385.0 1.46
    bond_coeff 365  546.0 1.367
    bond_coeff 366  520.0 1.37
    bond_coeff 367  520.0 1.37
    bond_coeff 368  385.0 1.46
    bond_coeff 369  385.0 1.46
    bond_coeff 370  385.0 1.46
    bond_coeff 371  469.0 1.424
    bond_coeff 372  469.0 1.424
    bond_coeff 373  490.0 1.335
    bond_coeff 374  317.0 1.522
    bond_coeff 375  337.0 1.449
    bond_coeff 376  260.0 1.52
    bond_coeff 377  550.0 1.225
    bond_coeff 378  94.0 2.32
    bond_coeff 379  549.0 1.345
    angle_coeff 1  33.0 109.47
    angle_coeff 2  50.0 109.5
    angle_coeff 3  63.0 112.4
    angle_coeff 4  63.0 112.4
    angle_coeff 5  80.0 109.5
    angle_coeff 6  63.0 112.4
    angle_coeff 7  63.0 112.4
    angle_coeff 8  80.0 109.5
    angle_coeff 9  63.0 112.4
    angle_coeff 10  63.0 112.4
    angle_coeff 11  63.0 112.4
    angle_coeff 12  63.0 112.4
    angle_coeff 13  80.0 109.5
    angle_coeff 14  63.0 114.0
    angle_coeff 15  63.0 112.4
    angle_coeff 16  50.0 108.6
    angle_coeff 17  50.0 114.7
    angle_coeff 18  50.0 114.7
    angle_coeff 19  80.0 109.5
    angle_coeff 20  80.0 109.5
    angle_coeff 21  80.0 109.5
    angle_coeff 22  80.0 110.3
    angle_coeff 23  80.0 111.2
    angle_coeff 24  56.2 109.47
    angle_coeff 25  56.2 109.47
    angle_coeff 26  56.2 109.47
    angle_coeff 27  56.2 109.47
    angle_coeff 28  80.0 111.2
    angle_coeff 29  63.0 112.4
    angle_coeff 30  63.0 114.0
    angle_coeff 31  63.0 112.4
    angle_coeff 32  63.0 112.4
    angle_coeff 33  80.0 111.2
    angle_coeff 34  80.0 111.2
    angle_coeff 35  63.0 115.6
    angle_coeff 36  80.0 120.4
    angle_coeff 37  80.0 121.0
    angle_coeff 38  80.0 121.4
    angle_coeff 39  80.0 126.0
    angle_coeff 40  80.0 121.0
    angle_coeff 41  80.0 120.4
    angle_coeff 42  70.0 115.0
    angle_coeff 43  80.0 120.4
    angle_coeff 44  70.0 120.0
    angle_coeff 45  85.0 120.0
    angle_coeff 46  70.0 108.0
    angle_coeff 47  70.0 116.0
    angle_coeff 48  80.0 111.0
    angle_coeff 49  80.0 117.2
    angle_coeff 50  80.0 120.4
    angle_coeff 51  81.0 111.4
    angle_coeff 52  81.0 111.4
    angle_coeff 53  83.0 123.4
    angle_coeff 54  75.0 109.0
    angle_coeff 55  75.0 119.0
    angle_coeff 56  70.0 114.2
    angle_coeff 57  70.0 116.6
    angle_coeff 58  70.0 116.6
    angle_coeff 59  70.0 116.6
    angle_coeff 60  70.0 116.6
    angle_coeff 61  70.0 116.6
    angle_coeff 62  80.0 122.9
    angle_coeff 63  81.0 111.4
    angle_coeff 64  70.0 116.0
    angle_coeff 65  80.0 120.4
    angle_coeff 66  35.0 115.0
    angle_coeff 67  35.0 115.0
    angle_coeff 68  35.0 123.0
    angle_coeff 69  40.0 114.0
    angle_coeff 70  40.0 115.0
    angle_coeff 71  40.0 115.0
    angle_coeff 72  70.0 115.5
    angle_coeff 73  80.0 125.3
    angle_coeff 74  35.0 115.0
    angle_coeff 75  70.0 115.5
    angle_coeff 76  70.0 116.0
    angle_coeff 77  70.0 120.0
    angle_coeff 78  80.0 120.4
    angle_coeff 79  81.0 111.4
    angle_coeff 80  85.0 120.0
    angle_coeff 81  70.0 116.0
    angle_coeff 82  80.0 116.0
    angle_coeff 83  80.0 124.0
    angle_coeff 84  65.0 117.0
    angle_coeff 85  70.0 117.0
    angle_coeff 86  70.0 117.0
    angle_coeff 87  70.0 117.0
    angle_coeff 88  70.0 117.0
    angle_coeff 89  80.0 126.0
    angle_coeff 90  80.0 126.0
    angle_coeff 91  35.0 122.0
    angle_coeff 92  80.0 122.5
    angle_coeff 93  70.0 114.1
    angle_coeff 94  70.0 118.6
    angle_coeff 95  70.0 118.6
    angle_coeff 96  80.0 120.6
    angle_coeff 97  70.0 111.3
    angle_coeff 98  70.0 111.3
    angle_coeff 99  80.0 128.8
    angle_coeff 100  75.0 109.0
    angle_coeff 101  75.0 119.0
    angle_coeff 102  70.0 116.0
    angle_coeff 103  80.0 120.4
    angle_coeff 104  80.0 128.2
    angle_coeff 105  70.0 115.4
    angle_coeff 106  70.0 118.6
    angle_coeff 107  80.0 120.9
    angle_coeff 108  70.0 116.6
    angle_coeff 109  80.0 122.9
    angle_coeff 110  10.0 117.0
    angle_coeff 111  35.0 113.0
    angle_coeff 112  35.0 113.0
    angle_coeff 113  55.0 108.5
    angle_coeff 114  55.0 108.5
    angle_coeff 115  55.0 108.5
    angle_coeff 116  55.0 108.5
    angle_coeff 117  49.0 105.4
    angle_coeff 118  5.0 109.47
    angle_coeff 119  10.0 109.47
    angle_coeff 120  10.0 109.47
    angle_coeff 121  35.0 109.0
    angle_coeff 122  10.0 109.47
    angle_coeff 123  35.0 113.0
    angle_coeff 124  55.0 108.5
    angle_coeff 125  55.0 108.5
    angle_coeff 126  100.0 120.5
    angle_coeff 127  74.0 110.0
    angle_coeff 128  100.0 126.0
    angle_coeff 129  10.0 109.47
    angle_coeff 130  33.0 109.47
    angle_coeff 131  63.0 112.4
    angle_coeff 132  63.0 111.1
    angle_coeff 133  80.0 109.5
    angle_coeff 134  63.0 111.1
    angle_coeff 135  63.0 111.5
    angle_coeff 136  63.0 112.4
    angle_coeff 137  80.0 109.5
    angle_coeff 138  63.0 111.1
    angle_coeff 139  63.0 111.5
    angle_coeff 140  63.0 111.5
    angle_coeff 141  63.0 111.5
    angle_coeff 142  80.0 109.5
    angle_coeff 143  80.0 109.5
    angle_coeff 144  80.0 109.5
    angle_coeff 145  80.0 109.5
    angle_coeff 146  63.0 110.1
    angle_coeff 147  80.0 109.5
    angle_coeff 148  80.0 109.7
    angle_coeff 149  80.0 109.7
    angle_coeff 150  56.2 109.47
    angle_coeff 151  56.2 109.47
    angle_coeff 152  56.2 109.47
    angle_coeff 153  56.2 109.47
    angle_coeff 154  80.0 109.7
    angle_coeff 155  63.0 112.4
    angle_coeff 156  80.0 109.5
    angle_coeff 157  80.0 109.5
    angle_coeff 158  80.0 109.5
    angle_coeff 159  80.0 109.5
    angle_coeff 160  70.0 124.0
    angle_coeff 161  70.0 124.0
    angle_coeff 162  70.0 124.0
    angle_coeff 163  70.0 118.0
    angle_coeff 164  70.0 118.0
    angle_coeff 165  70.0 118.0
    angle_coeff 166  70.0 124.0
    angle_coeff 167  70.0 124.0
    angle_coeff 168  70.0 124.0
    angle_coeff 169  70.0 118.0
    angle_coeff 170  70.0 118.0
    angle_coeff 171  70.0 118.0
    angle_coeff 172  70.0 118.0
    angle_coeff 173  70.0 118.0
    angle_coeff 174  70.0 118.0
    angle_coeff 175  70.0 118.0
    angle_coeff 176  70.0 124.0
    angle_coeff 177  70.0 124.0
    angle_coeff 178  70.0 124.0
    angle_coeff 179  70.0 124.0
    angle_coeff 180  70.0 118.0
    angle_coeff 181  70.0 118.0
    angle_coeff 182  70.0 118.0
    angle_coeff 183  70.0 120.0
    angle_coeff 184  85.0 120.0
    angle_coeff 185  85.0 120.0
    angle_coeff 186  85.0 120.0
    angle_coeff 187  85.0 120.0
    angle_coeff 188  85.0 120.0
    angle_coeff 189  77.0 109.1
    angle_coeff 190  40.0 109.5
    angle_coeff 191  50.0 109.5
    angle_coeff 192  63.0 111.1
    angle_coeff 193  63.0 111.1
    angle_coeff 194  40.0 109.5
    angle_coeff 195  40.0 109.5
    angle_coeff 196  63.0 109.5
    angle_coeff 197  50.0 109.5
    angle_coeff 198  50.0 109.5
    angle_coeff 199  58.35 112.7
    angle_coeff 200  63.0 111.1
    angle_coeff 201  50.0 108.6
    angle_coeff 202  50.0 114.7
    angle_coeff 203  58.35 112.7
    angle_coeff 204  50.0 109.5
    angle_coeff 205  50.0 109.5
    angle_coeff 206  69.0 109.8
    angle_coeff 207  69.0 109.8
    angle_coeff 208  78.0 111.7
    angle_coeff 209  50.0 108.6
    angle_coeff 210  50.0 109.5
    angle_coeff 211  63.0 110.1
    angle_coeff 212  80.0 109.7
    angle_coeff 213  80.0 109.7
    angle_coeff 214  50.0 114.7
    angle_coeff 215  56.2 109.47
    angle_coeff 216  56.2 109.47
    angle_coeff 217  56.2 109.47
    angle_coeff 218  56.2 109.47
    angle_coeff 219  80.0 111.2
    angle_coeff 220  33.0 107.8
    angle_coeff 221  35.0 108.5
    angle_coeff 222  35.0 108.5
    angle_coeff 223  35.0 109.5
    angle_coeff 224  35.0 109.5
    angle_coeff 225  35.0 109.5
    angle_coeff 226  35.0 109.5
    angle_coeff 227  35.0 109.5
    angle_coeff 228  35.0 109.5
    angle_coeff 229  35.0 109.5
    angle_coeff 230  35.0 109.5
    angle_coeff 231  35.0 109.5
    angle_coeff 232  37.5 110.7
    angle_coeff 233  40.0 107.0
    angle_coeff 234  51.0 107.6
    angle_coeff 235  35.0 109.5
    angle_coeff 236  50.0 109.5
    angle_coeff 237  63.0 111.1
    angle_coeff 238  63.0 112.4
    angle_coeff 239  35.0 109.5
    angle_coeff 240  40.0 109.5
    angle_coeff 241  40.0 109.5
    angle_coeff 242  50.0 109.5
    angle_coeff 243  50.0 109.5
    angle_coeff 244  50.0 109.5
    angle_coeff 245  50.0 114.7
    angle_coeff 246  63.0 112.0
    angle_coeff 247  63.0 114.0
    angle_coeff 248  63.0 114.0
    angle_coeff 249  80.0 111.2
    angle_coeff 250  35.0 109.5
    angle_coeff 251  37.5 110.7
    angle_coeff 252  50.0 109.5
    angle_coeff 253  58.35 112.7
    angle_coeff 254  35.0 109.5
    angle_coeff 255  80.0 111.2
    angle_coeff 256  80.0 111.2
    angle_coeff 257  35.0 109.5
    angle_coeff 258  80.0 111.2
    angle_coeff 259  35.0 109.5
    angle_coeff 260  63.0 110.1
    angle_coeff 261  65.0 109.0
    angle_coeff 262  35.0 109.5
    angle_coeff 263  80.0 111.2
    angle_coeff 264  35.0 109.5
    angle_coeff 265  63.0 114.0
    angle_coeff 266  41.0 109.5
    angle_coeff 267  43.0 109.5
    angle_coeff 268  43.0 109.5
    angle_coeff 269  51.0 107.6
    angle_coeff 270  69.0 109.8
    angle_coeff 271  69.0 110.0
    angle_coeff 272  69.0 110.0
    angle_coeff 273  78.0 111.7
    angle_coeff 274  75.0 111.0
    angle_coeff 275  75.0 112.0
    angle_coeff 276  35.0 109.5
    angle_coeff 277  50.0 108.6
    angle_coeff 278  50.0 109.5
    angle_coeff 279  35.0 109.5
    angle_coeff 280  63.0 115.6
    angle_coeff 281  35.0 109.5
    angle_coeff 282  63.0 114.0
    angle_coeff 283  35.0 109.5
    angle_coeff 284  50.0 114.7
    angle_coeff 285  63.0 114.0
    angle_coeff 286  35.0 109.5
    angle_coeff 287  63.0 114.0
    angle_coeff 288  35.0 109.5
    angle_coeff 289  63.0 115.6
    angle_coeff 290  35.0 109.5
    angle_coeff 291  80.0 110.0
    angle_coeff 292  80.0 113.0
    angle_coeff 293  37.5 110.7
    angle_coeff 294  35.0 105.0
    angle_coeff 295  63.0 105.0
    angle_coeff 296  35.0 109.5
    angle_coeff 297  80.0 111.2
    angle_coeff 298  35.0 105.0
    angle_coeff 299  63.0 111.1
    angle_coeff 300  41.0 109.5
    angle_coeff 301  43.0 109.5
    angle_coeff 302  35.0 109.5
    angle_coeff 303  50.0 109.5
    angle_coeff 304  50.0 109.5
    angle_coeff 305  35.0 109.5
    angle_coeff 306  80.0 109.7
    angle_coeff 307  35.0 109.5
    angle_coeff 308  60.0 112.0
    angle_coeff 309  70.0 124.0
    angle_coeff 310  70.0 124.0
    angle_coeff 311  70.0 124.0
    angle_coeff 312  70.0 118.0
    angle_coeff 313  70.0 118.0
    angle_coeff 314  70.0 118.0
    angle_coeff 315  70.0 124.0
    angle_coeff 316  70.0 124.0
    angle_coeff 317  70.0 124.0
    angle_coeff 318  70.0 118.0
    angle_coeff 319  70.0 118.0
    angle_coeff 320  70.0 118.0
    angle_coeff 321  70.0 118.0
    angle_coeff 322  70.0 118.0
    angle_coeff 323  70.0 118.0
    angle_coeff 324  70.0 118.0
    angle_coeff 325  70.0 124.0
    angle_coeff 326  70.0 124.0
    angle_coeff 327  70.0 124.0
    angle_coeff 328  70.0 124.0
    angle_coeff 329  70.0 118.0
    angle_coeff 330  70.0 118.0
    angle_coeff 331  70.0 118.0
    angle_coeff 332  70.0 118.0
    angle_coeff 333  70.0 118.0
    angle_coeff 334  70.0 118.0
    angle_coeff 335  70.0 118.0
    angle_coeff 336  35.0 92.07
    angle_coeff 337  44.0 96.0
    angle_coeff 338  44.0 96.0
    angle_coeff 339  44.0 96.0
    angle_coeff 340  5.0 109.47
    angle_coeff 341  10.0 109.47
    angle_coeff 342  10.0 160.0
    angle_coeff 343  150.0 96.7
    angle_coeff 344  150.0 96.7
    angle_coeff 345  150.0 96.7
    angle_coeff 346  150.0 96.7
    angle_coeff 347  50.0 96.0
    angle_coeff 348  62.0 98.9
    angle_coeff 349  62.0 98.9
    angle_coeff 350  68.0 103.7
    angle_coeff 351  68.0 103.7
    angle_coeff 352  68.0 103.7
    angle_coeff 353  65.0 100.0
    angle_coeff 354  5.0 109.47
    angle_coeff 355  10.0 109.47
    angle_coeff 356  10.0 160.0
    angle_coeff 357  150.0 96.7
    angle_coeff 358  150.0 96.7
    angle_coeff 359  150.0 96.7
    angle_coeff 360  150.0 96.7
    angle_coeff 361  62.0 104.2
    angle_coeff 362  62.0 104.2
    angle_coeff 363  74.0 92.4
    angle_coeff 364  10.0 130.0
    angle_coeff 365  10.0 130.0
    angle_coeff 366  74.0 97.0
    angle_coeff 367  10.0 130.0
    angle_coeff 368  74.0 90.0
    angle_coeff 369  74.0 97.0
    angle_coeff 370  74.0 97.0
    angle_coeff 371  62.0 94.0
    angle_coeff 372  10.0 109.47
    angle_coeff 373  33.0 109.47
    angle_coeff 374  150.0 180.0
    angle_coeff 375  170.0 180.0
    angle_coeff 376  100.0 180.0
    angle_coeff 377  150.0 180.0
    angle_coeff 378  140.0 180.0
    angle_coeff 379  150.0 180.0
    angle_coeff 380  10.0 90.0
    angle_coeff 381  112.0 180.0
    angle_coeff 382  150.0 180.0
    angle_coeff 383  160.0 180.0
    angle_coeff 384  150.0 180.0
    angle_coeff 385  160.0 180.0
    angle_coeff 386  160.0 180.0
    angle_coeff 387  150.0 180.0
    angle_coeff 388  150.0 180.0
    angle_coeff 389  100.0 111.8
    angle_coeff 390  83.0 116.9
    angle_coeff 391  83.0 116.9
    angle_coeff 392  100.0 111.8
    angle_coeff 393  55.0 108.5
    angle_coeff 394  55.0 108.5
    angle_coeff 395  83.0 116.9
    angle_coeff 396  100.0 111.8
    angle_coeff 397  60.0 109.5
    angle_coeff 398  83.0 116.9
    angle_coeff 399  5.0 109.47
    angle_coeff 400  10.0 109.47
    angle_coeff 401  75.0 111.0
    angle_coeff 402  10.0 109.47
    angle_coeff 403  75.0 111.0
    angle_coeff 404  75.0 111.0
    angle_coeff 405  75.0 111.0
    angle_coeff 406  83.0 116.9
    angle_coeff 407  100.0 111.8
    angle_coeff 408  60.0 109.5
    angle_coeff 409  100.0 113.0
    angle_coeff 410  100.0 113.0
    angle_coeff 411  100.0 113.0
    angle_coeff 412  70.0 104.5
    angle_coeff 413  10.0 125.0
    angle_coeff 414  100.0 120.5
    angle_coeff 415  100.0 120.5
    angle_coeff 416  100.0 120.5
    angle_coeff 417  100.0 120.5
    angle_coeff 418  100.0 120.5
    angle_coeff 419  100.0 120.5
    angle_coeff 420  10.0 125.0
    angle_coeff 421  70.0 106.5
    angle_coeff 422  70.0 107.0
    angle_coeff 423  10.0 125.0
    angle_coeff 424  70.0 104.0
    angle_coeff 425  70.0 106.5
    angle_coeff 426  70.0 106.5
    angle_coeff 427  70.0 108.9
    angle_coeff 428  20.0 145.0
    angle_coeff 429  40.0 130.0
    angle_coeff 430  33.0 109.47
    angle_coeff 431  62.0 96.0
    angle_coeff 432  74.0 107.0
    angle_coeff 433  10.0 90.0
    angle_coeff 434  50.0 121.9
    angle_coeff 435  70.0 126.4
    angle_coeff 436  46.0 115.7
    angle_coeff 437  50.0 121.9
    angle_coeff 438  50.0 121.9
    angle_coeff 439  50.0 118.0
    angle_coeff 440  50.0 121.9
    angle_coeff 441  50.0 118.0
    angle_coeff 442  50.0 121.9
    angle_coeff 443  70.0 112.0
    angle_coeff 444  70.0 108.6
    angle_coeff 445  10.0 109.5
    angle_coeff 446  10.0 100.0
    angle_coeff 447  35.0 110.2
    angle_coeff 448  35.0 119.8
    angle_coeff 449  35.0 120.0
    angle_coeff 450  38.0 118.4
    angle_coeff 451  38.0 118.4
    angle_coeff 452  38.0 118.4
    angle_coeff 453  38.0 118.4
    angle_coeff 454  35.0 119.8
    angle_coeff 455  50.0 118.0
    angle_coeff 456  50.0 121.9
    angle_coeff 457  70.0 118.0
    angle_coeff 458  35.0 120.0
    angle_coeff 459  35.0 118.0
    angle_coeff 460  70.0 125.2
    angle_coeff 461  50.0 120.0
    angle_coeff 462  100.0 111.0
    angle_coeff 463  35.0 119.8
    angle_coeff 464  70.0 118.0
    angle_coeff 465  70.0 117.0
    angle_coeff 466  35.0 119.8
    angle_coeff 467  70.0 118.0
    angle_coeff 468  35.0 119.8
    angle_coeff 469  70.0 118.0
    angle_coeff 470  40.0 113.0
    angle_coeff 471  55.0 128.0
    angle_coeff 472  70.0 121.0
    angle_coeff 473  20.0 126.0
    angle_coeff 474  33.0 109.47
    angle_coeff 475  75.0 104.52
    angle_coeff 476  50.0 52.26
    angle_coeff 477  34.05 104.52
    angle_coeff 478  75.0 109.5
    angle_coeff 479  50.0 54.75
    angle_coeff 480  75.0 104.52
    angle_coeff 481  50.0 109.47
    angle_coeff 482  50.0 110.6948
    angle_coeff 483  75.0 109.47
    angle_coeff 484  51.8 107.2
    angle_coeff 485  51.8 107.2
    angle_coeff 486  51.8 107.2
    angle_coeff 487  51.8 107.2
    angle_coeff 488  51.8 107.2
    angle_coeff 489  51.8 107.2
    angle_coeff 490  51.8 107.2
    angle_coeff 491  51.8 107.2
    angle_coeff 492  51.8 107.2
    angle_coeff 493  51.8 107.2
    angle_coeff 494  63.0 111.1
    angle_coeff 495  10.0 100.0
    angle_coeff 496  35.0 109.5
    angle_coeff 497  43.2 108.1
    angle_coeff 498  43.2 108.1
    angle_coeff 499  43.2 108.1
    angle_coeff 500  43.6 106.4
    angle_coeff 501  10.0 109.5
    angle_coeff 502  35.0 116.0
    angle_coeff 503  50.0 116.0
    angle_coeff 504  50.0 116.0
    angle_coeff 505  63.0 112.0
    angle_coeff 506  35.0 115.0
    angle_coeff 507  50.0 108.6
    angle_coeff 508  50.0 108.6
    angle_coeff 509  50.0 109.5
    angle_coeff 510  33.0 109.47
    angle_coeff 511  10.0 109.5
    angle_coeff 512  33.0 109.47
    angle_coeff 513  37.5 109.47
    angle_coeff 514  80.0 108.0
    angle_coeff 515  80.0 121.5
    angle_coeff 516  85.0 119.7
    angle_coeff 517  70.0 119.7
    angle_coeff 518  70.0 130.0
    angle_coeff 519  10.0 90.0
    angle_coeff 520  35.0 114.5
    angle_coeff 521  35.0 117.0
    angle_coeff 522  35.0 117.0
    angle_coeff 523  35.0 119.7
    angle_coeff 524  35.0 120.0
    angle_coeff 525  50.0 112.0
    angle_coeff 526  60.0 114.0
    angle_coeff 527  2.0 90.0
    angle_coeff 528  35.0 120.0
    angle_coeff 529  70.0 123.0
    angle_coeff 530  70.0 123.0
    angle_coeff 531  70.0 124.0
    angle_coeff 532  70.0 124.0
    angle_coeff 533  75.0 121.5
    angle_coeff 534  80.0 121.5
    angle_coeff 535  85.0 119.4
    angle_coeff 536  85.0 120.7
    angle_coeff 537  35.0 123.3
    angle_coeff 538  85.0 117.0
    angle_coeff 539  85.0 119.7
    angle_coeff 540  2.0 90.0
    angle_coeff 541  35.0 120.0
    angle_coeff 542  70.0 123.0
    angle_coeff 543  70.0 123.0
    angle_coeff 544  70.0 124.0
    angle_coeff 545  35.0 119.1
    angle_coeff 546  70.0 120.0
    angle_coeff 547  70.0 120.0
    angle_coeff 548  70.0 121.2
    angle_coeff 549  85.0 119.4
    angle_coeff 550  35.0 119.1
    angle_coeff 551  35.0 119.7
    angle_coeff 552  60.0 114.0
    angle_coeff 553  75.0 120.0
    angle_coeff 554  35.0 135.0
    angle_coeff 555  70.0 119.7
    angle_coeff 556  70.0 124.0
    angle_coeff 557  35.0 119.1
    angle_coeff 558  35.0 119.1
    angle_coeff 559  70.0 120.0
    angle_coeff 560  70.0 120.0
    angle_coeff 561  70.0 121.2
    angle_coeff 562  85.0 119.4
    angle_coeff 563  40.0 121.0
    angle_coeff 564  80.0 122.0
    angle_coeff 565  80.0 122.0
    angle_coeff 566  80.0 125.0
    angle_coeff 567  70.0 120.0
    angle_coeff 568  85.0 120.0
    angle_coeff 569  70.0 119.7
    angle_coeff 570  10.0 90.0
    angle_coeff 571  63.0 120.0
    angle_coeff 572  70.0 120.0
    angle_coeff 573  70.0 120.0
    angle_coeff 574  70.0 120.0
    angle_coeff 575  70.0 120.0
    angle_coeff 576  70.0 120.0
    angle_coeff 577  70.0 120.0
    angle_coeff 578  70.0 120.0
    angle_coeff 579  70.0 120.0
    angle_coeff 580  70.0 120.0
    angle_coeff 581  70.0 124.0
    angle_coeff 582  75.0 120.0
    angle_coeff 583  80.0 120.0
    angle_coeff 584  80.0 120.0
    angle_coeff 585  85.0 119.4
    angle_coeff 586  85.0 120.0
    angle_coeff 587  2.0 90.0
    angle_coeff 588  35.0 119.1
    angle_coeff 589  35.0 120.0
    angle_coeff 590  35.0 120.0
    angle_coeff 591  70.0 124.0
    angle_coeff 592  70.0 120.0
    angle_coeff 593  70.0 120.0
    angle_coeff 594  70.0 120.1
    angle_coeff 595  70.0 120.1
    angle_coeff 596  35.0 116.0
    angle_coeff 597  70.0 116.0
    angle_coeff 598  70.0 116.0
    angle_coeff 599  70.0 119.3
    angle_coeff 600  70.0 120.0
    angle_coeff 601  70.0 121.5
    angle_coeff 602  70.0 121.5
    angle_coeff 603  70.0 124.0
    angle_coeff 604  75.0 120.0
    angle_coeff 605  35.0 120.0
    angle_coeff 606  70.0 108.7
    angle_coeff 607  70.0 116.0
    angle_coeff 608  70.0 120.0
    angle_coeff 609  70.0 121.5
    angle_coeff 610  70.0 123.3
    angle_coeff 611  35.0 120.0
    angle_coeff 612  63.0 120.0
    angle_coeff 613  70.0 108.7
    angle_coeff 614  70.0 117.3
    angle_coeff 615  70.0 123.5
    angle_coeff 616  70.0 128.6
    angle_coeff 617  70.0 128.6
    angle_coeff 618  35.0 119.1
    angle_coeff 619  70.0 108.7
    angle_coeff 620  70.0 123.3
    angle_coeff 621  85.0 119.4
    angle_coeff 622  75.0 120.0
    angle_coeff 623  75.0 120.0
    angle_coeff 624  85.0 119.4
    angle_coeff 625  35.0 120.0
    angle_coeff 626  85.0 120.0
    angle_coeff 627  35.0 126.9
    angle_coeff 628  63.0 106.4
    angle_coeff 629  70.0 107.4
    angle_coeff 630  35.0 120.0
    angle_coeff 631  63.0 120.0
    angle_coeff 632  70.0 124.0
    angle_coeff 633  35.0 128.2
    angle_coeff 634  70.0 111.8
    angle_coeff 635  70.0 124.1
    angle_coeff 636  85.0 120.0
    angle_coeff 637  70.0 124.0
    angle_coeff 638  10.0 90.0
    angle_coeff 639  35.0 120.0
    angle_coeff 640  2.0 90.0
    angle_coeff 641  35.0 120.0
    angle_coeff 642  70.0 118.7
    angle_coeff 643  70.0 124.0
    angle_coeff 644  35.0 123.3
    angle_coeff 645  85.0 117.0
    angle_coeff 646  2.0 90.0
    angle_coeff 647  35.0 120.0
    angle_coeff 648  70.0 124.0
    angle_coeff 649  70.0 124.0
    angle_coeff 650  35.0 106.0
    angle_coeff 651  35.0 122.0
    angle_coeff 652  35.0 120.0
    angle_coeff 653  70.0 124.0
    angle_coeff 654  70.0 124.0
    angle_coeff 655  40.0 109.5
    angle_coeff 656  50.0 109.5
    angle_coeff 657  50.0 109.5
    angle_coeff 658  80.0 109.5
    angle_coeff 659  80.0 109.5
    angle_coeff 660  92.6 111.55
    angle_coeff 661  92.6 111.55
    angle_coeff 662  33.0 109.5
    angle_coeff 663  35.0 109.5
    angle_coeff 664  35.0 109.5
    angle_coeff 665  37.5 110.7
    angle_coeff 666  35.0 109.5
    angle_coeff 667  50.0 109.5
    angle_coeff 668  50.0 109.5
    angle_coeff 669  50.0 113.0
    angle_coeff 670  10.0 100.0
    angle_coeff 671  43.6 109.5
    angle_coeff 672  10.0 100.0
    angle_coeff 673  55.0 114.0
    angle_coeff 674  35.0 109.5
    angle_coeff 675  35.0 109.5
    angle_coeff 676  35.0 109.5
    angle_coeff 677  35.0 109.5
    angle_coeff 678  35.0 109.5
    angle_coeff 679  10.0 100.0
    angle_coeff 680  50.0 118.0
    angle_coeff 681  35.0 113.0
    angle_coeff 682  35.0 118.4
    angle_coeff 683  35.0 120.0
    angle_coeff 684  50.0 123.2
    angle_coeff 685  50.0 123.2
    angle_coeff 686  50.0 123.2
    angle_coeff 687  35.0 118.4
    angle_coeff 688  35.0 118.4
    angle_coeff 689  35.0 120.0
    angle_coeff 690  35.0 120.0
    angle_coeff 691  35.0 120.0
    angle_coeff 692  70.0 120.5
    angle_coeff 693  70.0 120.0
    angle_coeff 694  5.0 120.0
    angle_coeff 695  35.0 113.0
    angle_coeff 696  50.0 118.0
    angle_coeff 697  70.0 117.0
    angle_coeff 698  70.0 120.5
    angle_coeff 699  70.0 117.0
    angle_coeff 700  70.0 117.0
    angle_coeff 701  5.0 119.8
    angle_coeff 702  70.0 118.6
    angle_coeff 703  70.0 118.6
    angle_coeff 704  70.0 111.0
    angle_coeff 705  70.0 112.2
    angle_coeff 706  70.0 111.0
    angle_coeff 707  70.0 117.0
    angle_coeff 708  70.0 114.0
    angle_coeff 709  70.0 126.4
    angle_coeff 710  35.0 116.8
    angle_coeff 711  35.0 119.2
    angle_coeff 712  70.0 121.6
    angle_coeff 713  35.0 118.0
    angle_coeff 714  70.0 125.2
    angle_coeff 715  70.0 125.2
    angle_coeff 716  30.0 125.8
    angle_coeff 717  70.0 125.8
    angle_coeff 718  56.0 113.1
    angle_coeff 719  56.0 118.4
    angle_coeff 720  70.0 118.4
    angle_coeff 721  70.0 118.4
    angle_coeff 722  30.0 128.8
    angle_coeff 723  70.0 105.4
    angle_coeff 724  70.0 109.8
    angle_coeff 725  70.0 128.8
    angle_coeff 726  35.0 123.1
    angle_coeff 727  35.0 120.0
    angle_coeff 728  56.0 113.1
    angle_coeff 729  70.0 109.8
    angle_coeff 730  35.0 120.0
    angle_coeff 731  56.0 113.1
    angle_coeff 732  70.0 109.8
    angle_coeff 733  70.0 109.8
    angle_coeff 734  70.0 109.8
    angle_coeff 735  70.0 111.6
    angle_coeff 736  35.0 120.0
    angle_coeff 737  70.0 109.8
    angle_coeff 738  70.0 116.0
    angle_coeff 739  35.0 115.45
    angle_coeff 740  70.0 115.5
    angle_coeff 741  70.0 119.3
    angle_coeff 742  70.0 123.3
    angle_coeff 743  70.0 129.1
    angle_coeff 744  35.0 115.45
    angle_coeff 745  70.0 120.0
    angle_coeff 746  85.0 134.9
    angle_coeff 747  70.0 126.2
    angle_coeff 748  70.0 106.2
    angle_coeff 749  70.0 110.6
    angle_coeff 750  70.0 111.0
    angle_coeff 751  70.0 120.0
    angle_coeff 752  70.0 127.7
    angle_coeff 753  70.0 127.7
    angle_coeff 754  85.0 117.3
    angle_coeff 755  85.0 119.2
    angle_coeff 756  70.0 111.0
    angle_coeff 757  70.0 126.2
    angle_coeff 758  70.0 130.0
    angle_coeff 759  70.0 132.4
    angle_coeff 760  85.0 134.9
    angle_coeff 761  85.0 134.9
    angle_coeff 762  85.0 108.8
    angle_coeff 763  85.0 116.2
    angle_coeff 764  85.0 116.2
    angle_coeff 765  70.0 130.0
    angle_coeff 766  70.0 107.3
    angle_coeff 767  70.0 107.7
    angle_coeff 768  85.0 108.8
    angle_coeff 769  85.0 134.9
    angle_coeff 770  85.0 134.9
    angle_coeff 771  70.0 106.2
    angle_coeff 772  70.0 126.2
    angle_coeff 773  70.0 125.2
    angle_coeff 774  10.0 125.0
    angle_coeff 775  10.0 125.0
    angle_coeff 776  70.0 103.8
    angle_coeff 777  10.0 125.0
    angle_coeff 778  70.0 109.0
    angle_coeff 779  70.0 110.0
    angle_coeff 780  70.0 110.0
    angle_coeff 781  70.0 104.1
    angle_coeff 782  70.0 110.0
    angle_coeff 783  70.0 104.1
    angle_coeff 784  70.0 105.3
    angle_coeff 785  35.0 120.0
    angle_coeff 786  35.0 120.0
    angle_coeff 787  70.0 113.9
    angle_coeff 788  35.0 123.05
    angle_coeff 789  35.0 123.05
    angle_coeff 790  35.0 120.0
    angle_coeff 791  35.0 123.05
    angle_coeff 792  70.0 113.9
    angle_coeff 793  45.0 102.6
    angle_coeff 794  100.0 108.23
    angle_coeff 795  45.0 109.5
    angle_coeff 796  45.0 102.6
    angle_coeff 797  45.0 102.6
    angle_coeff 798  45.0 109.5
    angle_coeff 799  100.0 108.23
    angle_coeff 800  45.0 109.5
    angle_coeff 801  45.0 109.5
    angle_coeff 802  45.0 109.5
    angle_coeff 803  45.0 108.23
    angle_coeff 804  45.0 109.5
    angle_coeff 805  100.0 108.23
    angle_coeff 806  140.0 119.9
    angle_coeff 807  33.0 109.47
    angle_coeff 808  33.0 109.47
    angle_coeff 809  150.0 180.0
    angle_coeff 810  62.0 98.9
    angle_coeff 811  62.0 102.0
    angle_coeff 812  75.0 96.4
    angle_coeff 813  74.0 108.7
    angle_coeff 814  74.0 108.9
    angle_coeff 815  104.0 119.0
    angle_coeff 816  100.0 103.0
    angle_coeff 817  120.0 107.0
    angle_coeff 818  62.0 102.0
    angle_coeff 819  74.0 108.9
    angle_coeff 820  62.0 102.0
    angle_coeff 821  74.0 107.2
    angle_coeff 822  75.0 96.4
    angle_coeff 823  100.0 103.0
    angle_coeff 824  62.0 102.0
    angle_coeff 825  35.0 126.8
    angle_coeff 826  70.0 128.6
    angle_coeff 827  70.0 128.6
    angle_coeff 828  35.0 126.8
    angle_coeff 829  70.0 125.0
    angle_coeff 830  70.0 125.0
    angle_coeff 831  85.0 106.4
    angle_coeff 832  70.0 132.8
    angle_coeff 833  70.0 132.8
    angle_coeff 834  70.0 104.4
    angle_coeff 835  85.0 122.7
    angle_coeff 836  85.0 122.7
    angle_coeff 837  70.0 125.0
    angle_coeff 838  70.0 125.0
    angle_coeff 839  70.0 120.2
    angle_coeff 840  35.0 117.0
    angle_coeff 841  35.0 125.0
    angle_coeff 842  35.0 120.0
    angle_coeff 843  70.0 120.0
    angle_coeff 844  70.0 125.0
    angle_coeff 845  70.0 125.0
    angle_coeff 846  70.0 126.2
    angle_coeff 847  35.0 120.0
    angle_coeff 848  70.0 115.0
    angle_coeff 849  70.0 115.0
    angle_coeff 850  70.0 120.0
    angle_coeff 851  70.0 125.0
    angle_coeff 852  70.0 126.1
    angle_coeff 853  70.0 126.2
    angle_coeff 854  70.0 120.0
    angle_coeff 855  70.0 120.0
    angle_coeff 856  70.0 122.0
    angle_coeff 857  70.0 130.0
    angle_coeff 858  70.0 106.2
    angle_coeff 859  70.0 127.7
    angle_coeff 860  35.0 120.0
    angle_coeff 861  70.0 111.0
    angle_coeff 862  70.0 124.5
    angle_coeff 863  35.0 128.2
    angle_coeff 864  70.0 111.0
    angle_coeff 865  70.0 130.7
    angle_coeff 866  70.0 125.0
    angle_coeff 867  70.0 121.6
    angle_coeff 868  70.0 125.0
    angle_coeff 869  35.0 113.4
    angle_coeff 870  35.0 125.0
    angle_coeff 871  35.0 130.7
    angle_coeff 872  35.0 130.7
    angle_coeff 873  70.0 110.0
    angle_coeff 874  35.0 121.6
    angle_coeff 875  70.0 121.6
    angle_coeff 876  70.0 121.6
    angle_coeff 877  85.0 120.0
    angle_coeff 878  35.0 120.0
    angle_coeff 879  70.0 118.9
    angle_coeff 880  35.0 120.0
    angle_coeff 881  70.0 108.7
    angle_coeff 882  35.0 130.7
    angle_coeff 883  70.0 106.3
    angle_coeff 884  70.0 108.0
    angle_coeff 885  70.0 111.0
    angle_coeff 886  70.0 130.7
    angle_coeff 887  70.0 120.0
    angle_coeff 888  70.0 120.0
    angle_coeff 889  70.0 120.0
    angle_coeff 890  70.0 121.6
    angle_coeff 891  70.0 121.6
    angle_coeff 892  35.0 132.1
    angle_coeff 893  70.0 107.7
    angle_coeff 894  70.0 110.6
    angle_coeff 895  70.0 111.0
    angle_coeff 896  70.0 111.9
    angle_coeff 897  70.0 132.1
    angle_coeff 898  70.0 132.1
    angle_coeff 899  70.0 132.1
    angle_coeff 900  85.0 120.0
    angle_coeff 901  35.0 120.0
    angle_coeff 902  70.0 121.6
    angle_coeff 903  35.0 130.7
    angle_coeff 904  70.0 106.3
    angle_coeff 905  70.0 130.7
    angle_coeff 906  63.0 120.0
    angle_coeff 907  70.0 124.0
    angle_coeff 908  63.0 120.0
    angle_coeff 909  63.0 120.0
    angle_coeff 910  63.0 120.0
    angle_coeff 911  63.0 120.0
    angle_coeff 912  70.0 124.0
    angle_coeff 913  63.0 120.0
    angle_coeff 914  63.0 120.0
    angle_coeff 915  35.0 120.0
    angle_coeff 916  35.0 126.8
    angle_coeff 917  70.0 128.6
    angle_coeff 918  35.0 125.7
    angle_coeff 919  35.0 126.8
    angle_coeff 920  70.0 103.8
    angle_coeff 921  70.0 110.4
    angle_coeff 922  70.0 125.0
    angle_coeff 923  70.0 125.0
    angle_coeff 924  70.0 130.0
    angle_coeff 925  85.0 106.4
    angle_coeff 926  70.0 125.7
    angle_coeff 927  35.0 127.5
    angle_coeff 928  70.0 107.3
    angle_coeff 929  70.0 107.3
    angle_coeff 930  70.0 127.5
    angle_coeff 931  70.0 103.8
    angle_coeff 932  35.0 128.6
    angle_coeff 933  35.0 118.9
    angle_coeff 934  70.0 118.9
    angle_coeff 935  70.0 118.9
    angle_coeff 936  70.0 111.9
    angle_coeff 937  80.0 134.0
    angle_coeff 938  70.0 91.0
    angle_coeff 939  80.0 134.0
    angle_coeff 940  55.0 127.0
    angle_coeff 941  50.0 94.0
    angle_coeff 942  50.0 126.0
    angle_coeff 943  35.0 108.0
    angle_coeff 944  35.0 114.3
    angle_coeff 945  35.0 114.3
    angle_coeff 946  35.0 114.3
    angle_coeff 947  37.5 108.0
    angle_coeff 948  35.0 109.5
    angle_coeff 949  37.5 110.0
    angle_coeff 950  70.0 117.0
    angle_coeff 951  35.0 111.0
    angle_coeff 952  55.0 109.0
    angle_coeff 953  30.0 79.2
    angle_coeff 954  37.5 117.2
    angle_coeff 955  37.5 117.2
    angle_coeff 956  37.5 117.2
    angle_coeff 957  37.5 126.0
    angle_coeff 958  55.0 128.0
    angle_coeff 959  63.0 85.0
    angle_coeff 960  63.0 114.0
    angle_coeff 961  80.0 89.0
    angle_coeff 962  172.8 120.0
    angle_coeff 963  144.0 120.0
    angle_coeff 964  35.0 109.5
    angle_coeff 965  43.6 106.4
    angle_coeff 966  50.0 112.5
    angle_coeff 967  50.0 120.5
    angle_coeff 968  80.0 117.5
    angle_coeff 969  80.0 117.5
    angle_coeff 970  80.0 125.0
    angle_coeff 971  10.0 109.5
    angle_coeff 972  10.0 109.5
    angle_coeff 973  45.0 109.5
    angle_coeff 974  70.0 117.6
    angle_coeff 975  70.0 117.6
    angle_coeff 976  35.0 119.2
    angle_coeff 977  35.0 119.2
    angle_coeff 978  70.0 121.2
    angle_coeff 979  70.0 121.6
    angle_coeff 980  70.0 117.6
    angle_coeff 981  70.0 121.2
    angle_coeff 982  30.0 125.8
    angle_coeff 983  70.0 125.8
    angle_coeff 984  70.0 125.8
    angle_coeff 985  70.0 125.8
    angle_coeff 986  70.0 125.8
    angle_coeff 987  30.0 128.8
    angle_coeff 988  70.0 105.4
    angle_coeff 989  70.0 128.8
    angle_coeff 990  70.0 128.8
    angle_coeff 991  70.0 128.8
    angle_coeff 992  70.0 128.8
    angle_coeff 993  20.0 109.5
    angle_coeff 994  20.0 109.5
    angle_coeff 995  50.0 118.0
    angle_coeff 996  50.0 121.9
    angle_coeff 997  35.0 110.5
    angle_coeff 998  60.0 110.0
    angle_coeff 999  60.0 100.0
    angle_coeff 1000  60.0 110.0
    angle_coeff 1001  35.0 110.5
    angle_coeff 1002  35.0 109.5
    angle_coeff 1003  35.0 110.5
    angle_coeff 1004  35.0 109.5
    angle_coeff 1005  35.0 110.5
    angle_coeff 1006  35.0 110.5
    angle_coeff 1007  35.0 110.5
    angle_coeff 1008  50.0 112.0
    angle_coeff 1009  35.0 123.3
    angle_coeff 1010  35.0 120.0
    angle_coeff 1011  70.0 124.0
    angle_coeff 1012  35.0 120.0
    angle_coeff 1013  70.0 124.0
    angle_coeff 1014  70.0 124.0
    angle_coeff 1015  85.0 117.0
    angle_coeff 1016  160.0 180.0
    angle_coeff 1017  160.0 180.0
    dihedral_coeff 1  -2.5 1.25 3.1 0.0
    dihedral_coeff 2  -2.5 1.25 3.1 0.0
    dihedral_coeff 3  -2.0 0.7 3.0 0.0
    dihedral_coeff 4  -2.0 0.7 3.0 0.0
    dihedral_coeff 5  -3.4 1.25 3.1 0.0
    dihedral_coeff 6  -3.4 1.25 3.1 0.0
    dihedral_coeff 7  -3.4 1.25 3.1 0.0
    dihedral_coeff 8  -3.4 1.25 3.1 0.0
    dihedral_coeff 9  -2.0 0.5 3.25 0.0
    dihedral_coeff 10  -3.4 1.25 3.1 0.0
    dihedral_coeff 11  -2.0 0.5 3.25 0.0
    dihedral_coeff 12  -3.4 1.25 3.1 0.0
    dihedral_coeff 13  0.3 0.0 1.3 0.0
    dihedral_coeff 14  0.3 0.0 1.3 0.0
    dihedral_coeff 15  0.3 0.0 1.3 0.0
    dihedral_coeff 16  -2.5 1.25 3.1 0.0
    dihedral_coeff 17  -3.4 1.25 3.1 0.0
    dihedral_coeff 18  -3.4 1.25 3.1 0.0
    dihedral_coeff 19  -7.4 3.0 1.8 0.0
    dihedral_coeff 20  -8.4 3.0 1.8 0.0
    dihedral_coeff 21  1.6 3.2 0.0 0.0
    dihedral_coeff 22  0.0 0.5 0.0 0.0
    dihedral_coeff 23  0.0 0.0 0.0 0.0
    dihedral_coeff 24  0.0 0.0 0.0 0.0
    dihedral_coeff 25  0.7 -1.5 0.0 0.0
    dihedral_coeff 26  -0.5 0.2 0.0 0.0
    dihedral_coeff 27  0.8 -0.76 0.0 0.0
    dihedral_coeff 28  -0.9 0.3 0.0 0.0
    dihedral_coeff 29  0.0 0.0 0.3 0.0
    dihedral_coeff 30  3.0 5.5 0.0 0.0
    dihedral_coeff 31  0.0 5.0 0.0 0.0
    dihedral_coeff 32  1.5 5.5 0.0 0.0
    dihedral_coeff 33  -2.0 5.0 0.0 0.0
    dihedral_coeff 34  1.5 5.5 0.0 0.0
    dihedral_coeff 35  4.0 5.0 0.0 0.0
    dihedral_coeff 36  0.0 0.0 0.0 0.0
    dihedral_coeff 37  0.0 0.0 0.36 0.0
    dihedral_coeff 38  0.0 0.0 0.085 0.0
    dihedral_coeff 39  0.0 0.0 0.0 0.0
    dihedral_coeff 40  0.0 0.0 0.0 0.0
    dihedral_coeff 41  -0.65 0.0 0.0 0.0
    dihedral_coeff 42  0.0 0.82 0.0 0.0
    dihedral_coeff 43  0.0 0.0 0.0 0.0
    dihedral_coeff 44  0.0 0.0 0.0 0.0
    dihedral_coeff 45  0.0 0.546 0.0 0.0
    dihedral_coeff 46  0.0 1.412 0.0 0.0
    dihedral_coeff 47  5.26 0.82 0.0 0.0
    dihedral_coeff 48  0.0 0.0 0.0 0.0
    dihedral_coeff 49  1.454 -0.144 -0.775 0.0
    dihedral_coeff 50  0.0 0.0 0.275 0.0
    dihedral_coeff 51  0.0 0.0 -0.553 0.0
    dihedral_coeff 52  0.0 0.0 0.132 0.0
    dihedral_coeff 53  0.0 0.0 0.0 0.0
    dihedral_coeff 54  0.0 0.0 0.36 0.0
    dihedral_coeff 55  1.173 0.189 -1.2 0.0
    dihedral_coeff 56  0.65 0.0 0.0 0.0
    dihedral_coeff 57  1.816 1.222 1.581 0.0
    dihedral_coeff 58  0.0 0.0 0.0 0.0
    dihedral_coeff 59  0.0 0.0 0.0 0.0
    dihedral_coeff 60  0.0 0.0 0.36 0.0
    dihedral_coeff 61  0.0 0.0 0.275 0.0
    dihedral_coeff 62  0.0 0.82 0.0 0.0
    dihedral_coeff 63  0.0 0.82 0.0 0.0
    dihedral_coeff 64  0.0 0.0 0.0 0.0
    dihedral_coeff 65  0.0 0.0 0.0 0.0
    dihedral_coeff 66  0.0 0.0 0.36 0.0
    dihedral_coeff 67  0.0 0.0 0.0 0.0
    dihedral_coeff 68  0.0 5.124 0.0 0.0
    dihedral_coeff 69  0.0 5.0 0.0 0.0
    dihedral_coeff 70  4.669 5.124 0.0 0.0
    dihedral_coeff 71  1.5 5.0 0.0 0.0
    dihedral_coeff 72  -2.0 5.0 0.0 0.0
    dihedral_coeff 73  4.669 5.124 0.0 0.0
    dihedral_coeff 74  4.0 5.0 0.0 0.0
    dihedral_coeff 75  0.4 4.9 0.0 0.0
    dihedral_coeff 76  0.0 4.9 0.0 0.0
    dihedral_coeff 77  0.0 6.603 0.0 0.0
    dihedral_coeff 78  0.0 6.089 0.0 0.0
    dihedral_coeff 79  0.0 4.9 0.0 0.0
    dihedral_coeff 80  0.0 6.089 0.0 0.0
    dihedral_coeff 81  0.0 6.089 0.0 0.0
    dihedral_coeff 82  0.0 6.089 0.0 0.0
    dihedral_coeff 83  2.3 6.089 0.0 0.0
    dihedral_coeff 84  0.0 4.9 0.0 0.0
    dihedral_coeff 85  4.542 6.603 1.045 0.0
    dihedral_coeff 86  2.3 6.089 0.0 0.0
    dihedral_coeff 87  0.0 4.9 0.0 0.0
    dihedral_coeff 88  2.3 6.089 0.0 0.0
    dihedral_coeff 89  2.3 6.089 0.0 0.0
    dihedral_coeff 90  0.0 4.9 0.0 0.0
    dihedral_coeff 91  2.3 6.089 0.0 0.0
    dihedral_coeff 92  4.6 0.0 0.0 0.0
    dihedral_coeff 93  0.0 4.9 0.0 0.0
    dihedral_coeff 94  2.3 6.089 0.0 0.0
    dihedral_coeff 95  0.0 4.9 0.0 0.0
    dihedral_coeff 96  0.0 4.9 0.0 0.0
    dihedral_coeff 97  0.0 4.9 0.0 0.0
    dihedral_coeff 98  2.3 6.089 0.0 0.0
    dihedral_coeff 99  2.3 6.089 0.0 0.0
    dihedral_coeff 100  2.3 6.089 0.0 0.0
    dihedral_coeff 101  2.3 6.089 0.0 0.0
    dihedral_coeff 102  2.3 6.089 0.0 0.0
    dihedral_coeff 103  2.3 6.089 0.0 0.0
    dihedral_coeff 104  0.0 4.9 0.0 0.0
    dihedral_coeff 105  2.3 6.089 0.0 0.0
    dihedral_coeff 106  2.3 6.089 0.0 0.0
    dihedral_coeff 107  2.3 6.089 0.0 0.0
    dihedral_coeff 108  0.9 0.23 -0.505 0.0
    dihedral_coeff 109  0.0 0.0 0.0 0.0
    dihedral_coeff 110  2.5 6.0 0.0 0.0
    dihedral_coeff 111  3.2 -3.0 0.0 0.0
    dihedral_coeff 112  0.0 0.0 0.0 0.0
    dihedral_coeff 113  2.0 0.0 0.0 0.0
    dihedral_coeff 114  0.0 0.0 0.0 0.0
    dihedral_coeff 115  2.0 0.0 0.0 0.0
    dihedral_coeff 116  0.0 2.1 0.0 0.0
    dihedral_coeff 117  0.0 2.1 0.0 0.0
    dihedral_coeff 118  0.0 0.2 0.0 0.0
    dihedral_coeff 119  0.0 2.1 0.0 0.0
    dihedral_coeff 120  0.0 1.1 0.0 0.0
    dihedral_coeff 121  0.0 0.2 0.0 0.0
    dihedral_coeff 122  0.9 0.23 -0.505 0.0
    dihedral_coeff 123  2.5 6.0 0.0 0.0
    dihedral_coeff 124  3.2 -3.0 0.0 0.0
    dihedral_coeff 125  0.8 -3.0 0.0 0.0
    dihedral_coeff 126  0.0 14.0 0.0 0.0
    dihedral_coeff 127  0.0 14.0 0.0 0.0
    dihedral_coeff 128  0.0 14.0 0.0 0.0
    dihedral_coeff 129  0.0 14.0 0.0 0.0
    dihedral_coeff 130  0.0 7.0 0.0 0.0
    dihedral_coeff 131  0.0 7.0 0.0 0.0
    dihedral_coeff 132  0.0 0.0 0.0 0.0
    dihedral_coeff 133  2.0 1.0 0.0 0.0
    dihedral_coeff 134  0.0 1.0 0.0 0.0
    dihedral_coeff 135  -2.0 1.0 0.0 0.0
    dihedral_coeff 136  0.0 1.0 0.0 0.0
    dihedral_coeff 137  -0.75 1.5 0.0 0.0
    dihedral_coeff 138  0.75 1.5 0.0 0.0
    dihedral_coeff 139  0.0 1.5 0.0 0.0
    dihedral_coeff 140  0.0 1.5 0.0 0.0
    dihedral_coeff 141  0.0 2.17 0.0 0.0
    dihedral_coeff 142  0.0 7.25 0.0 0.0
    dihedral_coeff 143  0.0 2.1 0.0 0.0
    dihedral_coeff 144  0.0 2.1 0.0 0.0
    dihedral_coeff 145  0.0 1.1 0.0 0.0
    dihedral_coeff 146  0.0 1.1 0.0 0.0
    dihedral_coeff 147  0.0 4.9 0.0 0.0
    dihedral_coeff 148  0.0 4.9 0.0 0.0
    dihedral_coeff 149  2.5 6.0 0.0 0.0
    dihedral_coeff 150  3.2 -3.0 0.0 0.0
    dihedral_coeff 151  0.0 0.0 0.0 0.0
    dihedral_coeff 152  0.3 0.0 0.5 0.0
    dihedral_coeff 153  0.3 0.0 0.5 0.0
    dihedral_coeff 154  0.0 0.0 0.2 0.0
    dihedral_coeff 155  0.0 0.0 0.2 0.0
    dihedral_coeff 156  -0.356 -0.174 0.492 0.0
    dihedral_coeff 157  0.0 0.0 0.352 0.0
    dihedral_coeff 158  -0.9 0.0 0.0 0.0
    dihedral_coeff 159  -0.9 0.0 0.0 0.0
    dihedral_coeff 160  -0.9 0.0 0.0 0.0
    dihedral_coeff 161  0.0 0.0 0.3 0.0
    dihedral_coeff 162  0.0 0.0 0.3 0.0
    dihedral_coeff 163  5.519 -6.7 0.581 0.0
    dihedral_coeff 164  2.722 -5.154 0.0 0.0
    dihedral_coeff 165  0.0 1.682 0.0 0.0
    dihedral_coeff 166  0.0 1.682 0.0 0.0
    dihedral_coeff 167  -1.257 -1.806 0.003 0.0
    dihedral_coeff 168  3.0 3.0 0.0 0.0
    dihedral_coeff 169  0.0 0.0 0.0 0.0
    dihedral_coeff 170  0.0 0.0 0.0 0.0
    dihedral_coeff 171  -0.75 0.0 0.0 0.0
    dihedral_coeff 172  0.75 0.0 0.0 0.0
    dihedral_coeff 173  2.0 0.0 0.0 0.0
    dihedral_coeff 174  -4.344 -1.714 0.0 0.0
    dihedral_coeff 175  1.711 -0.5 0.663 0.0
    dihedral_coeff 176  1.428 0.086 0.029 0.0
    dihedral_coeff 177  -2.5 0.0 0.25 0.0
    dihedral_coeff 178  0.0 0.0 0.54 0.0
    dihedral_coeff 179  0.3 -0.4 0.4 0.0
    dihedral_coeff 180  0.0 0.0 0.4 0.0
    dihedral_coeff 181  -0.55 0.0 1.0 0.0
    dihedral_coeff 182  -6.18 0.0 0.0 0.0
    dihedral_coeff 183  -2.06 -0.313 0.315 0.0
    dihedral_coeff 184  -4.344 -1.714 0.0 0.0
    dihedral_coeff 185  -4.344 -1.714 0.0 0.0
    dihedral_coeff 186  -9.0 2.0 0.8 0.0
    dihedral_coeff 187  0.0 0.0 -0.1 0.0
    dihedral_coeff 188  -1.697 -0.456 0.585 0.0
    dihedral_coeff 189  -1.697 -0.456 0.585 0.0
    dihedral_coeff 190  9.508 0.0 0.0 0.0
    dihedral_coeff 191  -1.552 0.0 0.0 0.0
    dihedral_coeff 192  4.319 0.0 0.0 0.0
    dihedral_coeff 193  8.0 0.0 0.0 0.0
    dihedral_coeff 194  6.28 -1.467 2.03 0.0
    dihedral_coeff 195  0.0 0.0 0.468 0.0
    dihedral_coeff 196  1.3 -0.05 0.2 0.0
    dihedral_coeff 197  1.262 -0.198 0.465 0.0
    dihedral_coeff 198  2.619 -0.62 0.258 0.0
    dihedral_coeff 199  0.0 -0.65 0.0 0.0
    dihedral_coeff 200  0.0 0.0 0.4 0.0
    dihedral_coeff 201  2.392 -0.674 0.55 0.0
    dihedral_coeff 202  0.845 -0.962 0.713 0.0
    dihedral_coeff 203  0.0 0.0 0.3 0.0
    dihedral_coeff 204  1.3 -0.05 0.2 0.0
    dihedral_coeff 205  2.732 -0.229 0.485 0.0
    dihedral_coeff 206  0.0 0.0 0.4 0.0
    dihedral_coeff 207  0.0 0.0 0.4 0.0
    dihedral_coeff 208  1.262 -0.198 0.465 0.0
    dihedral_coeff 209  1.964 0.0 0.659 0.0
    dihedral_coeff 210  0.0 0.0 0.0 0.0
    dihedral_coeff 211  0.0 0.0 0.452 0.0
    dihedral_coeff 212  0.0 0.0 0.452 0.0
    dihedral_coeff 213  0.0 0.0 0.366 0.0
    dihedral_coeff 214  -0.55 0.0 0.0 0.0
    dihedral_coeff 215  0.0 0.0 0.468 0.0
    dihedral_coeff 216  -0.25 0.0 0.0 0.0
    dihedral_coeff 217  2.0 0.0 0.0 0.0
    dihedral_coeff 218  0.0 0.0 0.4 0.0
    dihedral_coeff 219  11.035 -0.968 0.27 0.0
    dihedral_coeff 220  -1.013 -0.709 0.473 0.0
    dihedral_coeff 221  -0.8 0.0 0.0 0.0
    dihedral_coeff 222  0.0 0.0 0.464 0.0
    dihedral_coeff 223  0.845 -0.962 0.713 0.0
    dihedral_coeff 224  0.845 -0.962 0.713 0.0
    dihedral_coeff 225  0.0 0.0 0.3 0.0
    dihedral_coeff 226  0.0 0.0 0.366 0.0
    dihedral_coeff 227  0.0 0.0 0.462 0.0
    dihedral_coeff 228  0.0 0.0 0.3 0.0
    dihedral_coeff 229  0.0 0.0 0.384 0.0
    dihedral_coeff 230  0.0 0.0 -0.582 0.0
    dihedral_coeff 231  0.0 0.0 0.462 0.0
    dihedral_coeff 232  0.0 0.0 0.462 0.0
    dihedral_coeff 233  0.0 0.0 0.4 0.0
    dihedral_coeff 234  0.0 0.0 0.4 0.0
    dihedral_coeff 235  0.0 0.0 0.452 0.0
    dihedral_coeff 236  0.0 0.0 0.462 0.0
    dihedral_coeff 237  0.0 0.0 0.462 0.0
    dihedral_coeff 238  0.0 0.0 0.462 0.0
    dihedral_coeff 239  0.0 0.0 0.462 0.0
    dihedral_coeff 240  0.0 0.0 0.462 0.0
    dihedral_coeff 241  0.0 0.0 0.462 0.0
    dihedral_coeff 242  0.0 0.0 -0.225 0.0
    dihedral_coeff 243  0.0 0.0 0.3 0.0
    dihedral_coeff 244  0.0 0.0 0.464 0.0
    dihedral_coeff 245  0.0 0.0 0.45 0.0
    dihedral_coeff 246  0.0 0.0 0.366 0.0
    dihedral_coeff 247  1.0 0.0 0.0 0.0
    dihedral_coeff 248  5.2 -0.5 0.0 0.0
    dihedral_coeff 249  -0.759 -0.282 0.68 0.0
    dihedral_coeff 250  0.0 0.0 0.48 0.0
    dihedral_coeff 251  0.925 -0.576 0.677 0.0
    dihedral_coeff 252  1.941 -0.836 0.935 0.0
    dihedral_coeff 253  0.0 0.0 0.647 0.0
    dihedral_coeff 254  0.0 0.0 0.558 0.0
    dihedral_coeff 255  0.0 0.0 0.647 0.0
    dihedral_coeff 256  0.0 0.0 0.0 0.0
    dihedral_coeff 257  0.0 0.0 0.0 0.0
    dihedral_coeff 258  0.0 0.0 0.0 0.0
    dihedral_coeff 259  0.0 0.0 0.0 0.0
    dihedral_coeff 260  0.0 0.0 0.0 0.0
    dihedral_coeff 261  0.0 0.0 0.0 0.0
    dihedral_coeff 262  -0.521 -2.018 1.996 0.0
    dihedral_coeff 263  -0.5 -1.5 1.0 0.0
    dihedral_coeff 264  -0.5 -1.5 1.0 0.0
    dihedral_coeff 265  -1.22 -0.126 0.422 0.0
    dihedral_coeff 266  0.65 -0.25 0.67 0.0
    dihedral_coeff 267  -1.42 -0.62 0.1 0.0
    dihedral_coeff 268  0.0 0.0 0.76 0.0
    dihedral_coeff 269  0.0 0.0 0.198 0.0
    dihedral_coeff 270  0.0 0.0 0.76 0.0
    dihedral_coeff 271  0.0 0.0 0.76 0.0
    dihedral_coeff 272  0.0 0.0 0.76 0.0
    dihedral_coeff 273  0.0 0.0 0.3 0.0
    dihedral_coeff 274  0.0 0.0 0.0 0.0
    dihedral_coeff 275  -2.365 0.912 -0.85 0.0
    dihedral_coeff 276  -1.737 1.251 -3.501 0.0
    dihedral_coeff 277  0.0 0.0 0.0 0.0
    dihedral_coeff 278  0.0 0.462 0.0 0.0
    dihedral_coeff 279  4.753 -0.734 0.0 0.0
    dihedral_coeff 280  0.0 0.0 0.0 0.0
    dihedral_coeff 281  0.0 0.0 0.0 0.0
    dihedral_coeff 282  2.929 -2.533 0.497 0.0
    dihedral_coeff 283  2.3 6.089 0.0 0.0
    dihedral_coeff 284  0.0 0.0 0.0 0.0
    dihedral_coeff 285  0.0 0.0 0.0 0.0
    dihedral_coeff 286  0.0 0.0 0.0 0.0
    dihedral_coeff 287  0.0 0.0 0.0 0.0
    dihedral_coeff 288  1.362 -1.457 0.149 0.0
    dihedral_coeff 289  0.0 0.0 0.0 0.0
    dihedral_coeff 290  0.416 -0.128 0.695 0.0
    dihedral_coeff 291  -0.19 -0.417 0.418 0.0
    dihedral_coeff 292  0.0 0.0 0.56 0.0
    dihedral_coeff 293  0.0 0.0 0.4 0.0
    dihedral_coeff 294  0.0 0.0 0.56 0.0
    dihedral_coeff 295  1.711 -0.5 0.663 0.0
    dihedral_coeff 296  0.0 0.0 0.468 0.0
    dihedral_coeff 297  0.5 0.0 0.0 0.0
    dihedral_coeff 298  0.5 0.0 0.0 0.0
    dihedral_coeff 299  0.5 0.0 0.0 0.0
    dihedral_coeff 300  2.817 -0.169 0.543 0.0
    dihedral_coeff 301  0.346 0.405 -0.904 0.0
    dihedral_coeff 302  0.346 0.405 -0.904 0.0
    dihedral_coeff 303  0.0 0.0 0.3 0.0
    dihedral_coeff 304  0.0 0.0 0.318 0.0
    dihedral_coeff 305  0.0 0.0 -0.372 0.0
    dihedral_coeff 306  0.0 0.0 -0.372 0.0
    dihedral_coeff 307  0.0 0.0 -0.25 0.0
    dihedral_coeff 308  0.0 -8.0 0.0 0.0
    dihedral_coeff 309  0.0 -8.0 0.0 0.0
    dihedral_coeff 310  0.0 0.0 0.0 0.0
    dihedral_coeff 311  0.0 0.45 0.0 0.0
    dihedral_coeff 312  0.0 0.0 0.0 0.0
    dihedral_coeff 313  -0.5 0.5 -0.5 0.0
    dihedral_coeff 314  0.0 -0.4 0.0 0.0
    dihedral_coeff 315  0.0 0.0 0.0 0.0
    dihedral_coeff 316  0.0 0.0 0.0 0.0
    dihedral_coeff 317  0.0 0.0 0.4 0.0
    dihedral_coeff 318  0.5 0.0 0.0 0.0
    dihedral_coeff 319  0.346 0.405 -0.904 0.0
    dihedral_coeff 320  0.0 0.0 -0.372 0.0
    dihedral_coeff 321  0.0 0.0 -0.372 0.0
    dihedral_coeff 322  0.0 0.0 -0.372 0.0
    dihedral_coeff 323  1.711 -0.5 0.663 0.0
    dihedral_coeff 324  0.0 0.0 0.3 0.0
    dihedral_coeff 325  0.0 0.0 0.468 0.0
    dihedral_coeff 326  1.438 -0.124 0.264 0.0
    dihedral_coeff 327  0.0 0.0 0.347 0.0
    dihedral_coeff 328  0.0 0.0 0.302 0.0
    dihedral_coeff 329  0.0 0.0 0.261 0.0
    dihedral_coeff 330  0.0 0.0 0.462 0.0
    dihedral_coeff 331  0.0 0.0 0.3 0.0
    dihedral_coeff 332  -0.19 -0.417 0.418 0.0
    dihedral_coeff 333  1.829 0.243 -0.498 0.0
    dihedral_coeff 334  -0.19 -0.417 0.418 0.0
    dihedral_coeff 335  0.0 0.0 0.0 0.0
    dihedral_coeff 336  0.0 0.0 0.0 0.0
    dihedral_coeff 337  0.0 0.0 0.177 0.0
    dihedral_coeff 338  0.0 0.0 0.0 0.0
    dihedral_coeff 339  0.0 0.0 0.0 0.0
    dihedral_coeff 340  1.0 -0.35 0.0 0.0
    dihedral_coeff 341  2.756 -0.872 -3.68 0.0
    dihedral_coeff 342  -1.0 -0.35 0.0 0.0
    dihedral_coeff 343  1.5 -1.5 0.0 0.0
    dihedral_coeff 344  -1.5 -1.5 0.0 0.0
    dihedral_coeff 345  -1.5 -1.5 0.0 0.0
    dihedral_coeff 346  0.0 0.0 0.0 0.0
    dihedral_coeff 347  0.0 0.5 -0.5 0.0
    dihedral_coeff 348  0.0 0.0 0.0 0.0
    dihedral_coeff 349  0.0 0.0 0.0 0.0
    dihedral_coeff 350  0.0 0.0 0.0 0.0
    dihedral_coeff 351  0.0 0.0 0.25 0.0
    dihedral_coeff 352  0.0 0.0 0.25 0.0
    dihedral_coeff 353  2.25 0.0 0.0 0.0
    dihedral_coeff 354  0.0 0.0 0.0 0.0
    dihedral_coeff 355  0.0 0.0 0.0 0.0
    dihedral_coeff 356  0.0 0.0 0.0 0.0
    dihedral_coeff 357  0.0 0.0 0.0 0.0
    dihedral_coeff 358  0.0 0.0 0.0 0.0
    dihedral_coeff 359  0.0 0.0 0.35 0.0
    dihedral_coeff 360  0.0 0.0 0.35 0.0
    dihedral_coeff 361  0.0 0.0 0.35 0.0
    dihedral_coeff 362  0.0 0.0 0.35 0.0
    dihedral_coeff 363  0.0 0.0 0.0 0.0
    dihedral_coeff 364  0.0 0.0 0.0 0.0
    dihedral_coeff 365  -0.714 0.0 0.0 0.0
    dihedral_coeff 366  0.0 0.0 0.0 0.0
    dihedral_coeff 367  0.0 0.0 0.0 0.0
    dihedral_coeff 368  0.0 0.0 -0.48 0.0
    dihedral_coeff 369  0.0 0.0 0.0 0.0
    dihedral_coeff 370  0.0 0.0 0.0 0.0
    dihedral_coeff 371  0.0 0.0 0.0 0.0
    dihedral_coeff 372  0.0 0.0 0.0 0.0
    dihedral_coeff 373  0.0 0.45 0.0 0.0
    dihedral_coeff 374  0.0 0.0 0.0 0.0
    dihedral_coeff 375  1.7 -0.6 0.0 0.0
    dihedral_coeff 376  0.0 -0.4 0.0 0.0
    dihedral_coeff 377  0.0 0.0 0.0 0.0
    dihedral_coeff 378  0.0 0.45 0.0 0.0
    dihedral_coeff 379  0.0 0.0 0.0 0.0
    dihedral_coeff 380  0.0 -0.4 0.0 0.0
    dihedral_coeff 381  0.0 0.0 0.0 0.0
    dihedral_coeff 382  0.0 0.0 0.0 0.0
    dihedral_coeff 383  0.0 0.0 0.0 0.0
    dihedral_coeff 384  0.0 0.0 0.0 0.0
    dihedral_coeff 385  0.0 0.0 0.0 0.0
    dihedral_coeff 386  0.0 0.0 0.3 0.0
    dihedral_coeff 387  0.0 -1.0 0.0 0.0
    dihedral_coeff 388  0.0 -1.0 0.0 0.0
    dihedral_coeff 389  0.0 0.4 0.0 0.0
    dihedral_coeff 390  0.0 0.0 0.0 0.0
    dihedral_coeff 391  1.0 -0.5 0.5 0.0
    dihedral_coeff 392  0.0 0.0 0.3 0.0
    dihedral_coeff 393  0.0 0.0 0.0 0.0
    dihedral_coeff 394  1.0 -0.35 0.0 0.0
    dihedral_coeff 395  -1.0 -0.35 0.0 0.0
    dihedral_coeff 396  -1.0 -0.35 0.0 0.0
    dihedral_coeff 397  1.5 -1.5 0.0 0.0
    dihedral_coeff 398  3.132 -1.491 2.744 0.0
    dihedral_coeff 399  -1.5 -1.5 0.0 0.0
    dihedral_coeff 400  -1.737 1.251 -3.501 0.0
    dihedral_coeff 401  -1.396 -0.427 0.0 0.0
    dihedral_coeff 402  4.753 -0.734 0.0 0.0
    dihedral_coeff 403  0.0 0.0 -0.139 0.0
    dihedral_coeff 404  0.0 0.0 0.0 0.0
    dihedral_coeff 405  0.0 0.0 0.0 0.0
    dihedral_coeff 406  1.0 0.0 0.0 0.0
    dihedral_coeff 407  0.0 0.0 0.26 0.0
    dihedral_coeff 408  0.0 0.0 0.18 0.0
    dihedral_coeff 409  0.0 0.0 0.0 0.0
    dihedral_coeff 410  0.0 0.0 0.18 0.0
    dihedral_coeff 411  0.346 0.405 -0.904 0.0
    dihedral_coeff 412  0.0 0.0 0.3 0.0
    dihedral_coeff 413  0.0 0.0 0.318 0.0
    dihedral_coeff 414  0.0 0.0 -0.372 0.0
    dihedral_coeff 415  0.0 1.1 0.0 0.0
    dihedral_coeff 416  0.0 1.1 0.0 0.0
    dihedral_coeff 417  0.0 -7.414 1.705 0.0
    dihedral_coeff 418  0.0 0.6 0.0 0.0
    dihedral_coeff 419  1.6 5.1 0.0 0.0
    dihedral_coeff 420  0.0 4.8 0.0 0.0
    dihedral_coeff 421  0.0 7.25 0.0 0.0
    dihedral_coeff 422  0.0 7.25 0.0 0.0
    dihedral_coeff 423  0.0 7.25 0.0 0.0
    dihedral_coeff 424  0.0 7.25 0.0 0.0
    dihedral_coeff 425  0.0 7.25 0.0 0.0
    dihedral_coeff 426  0.0 0.0 0.0 0.0
    dihedral_coeff 427  0.0 0.0 0.0 0.0
    dihedral_coeff 428  0.0 0.0 0.0 0.0
    dihedral_coeff 429  0.0 0.0 0.0 0.0
    dihedral_coeff 430  0.0 0.0 0.0 0.0
    dihedral_coeff 431  0.0 0.0 0.0 0.0
    dihedral_coeff 432  0.0 0.0 0.0 0.0
    dihedral_coeff 433  0.0 0.0 0.0 0.0
    dihedral_coeff 434  0.0 0.0 0.0 0.0
    dihedral_coeff 435  0.0 0.0 0.0 0.0
    dihedral_coeff 436  0.0 0.0 0.0 0.0
    dihedral_coeff 437  0.0 0.0 0.0 0.0
    dihedral_coeff 438  0.0 0.0 0.0 0.0
    dihedral_coeff 439  0.0 0.0 0.0 0.0
    dihedral_coeff 440  0.0 0.0 0.0 0.0
    dihedral_coeff 441  0.0 0.0 0.3 0.0
    dihedral_coeff 442  0.0 0.0 0.3 0.0
    dihedral_coeff 443  0.65 -0.25 0.67 0.0
    dihedral_coeff 444  0.0 0.0 0.76 0.0
    dihedral_coeff 445  -3.5 3.0 0.0 0.0
    dihedral_coeff 446  -3.5 3.0 0.0 0.0
    dihedral_coeff 447  0.0 2.5 0.0 0.0
    dihedral_coeff 448  0.0 3.0 0.0 0.0
    dihedral_coeff 449  0.4 5.5 0.0 0.0
    dihedral_coeff 450  0.0 2.99 0.0 0.0
    dihedral_coeff 451  -0.375 -1.358 0.004 0.0
    dihedral_coeff 452  0.65 -0.25 0.67 0.0
    dihedral_coeff 453  -0.375 -1.358 0.004 0.0
    dihedral_coeff 454  0.0 0.0 0.76 0.0
    dihedral_coeff 455  3.0 3.0 0.0 0.0
    dihedral_coeff 456  0.0 5.2 0.0 0.0
    dihedral_coeff 457  0.0 0.0 0.562 0.0
    dihedral_coeff 458  3.5 -3.3 1.5 0.0
    dihedral_coeff 459  0.0 0.0 0.0 0.0
    dihedral_coeff 460  0.0 0.0 0.0 0.0
    dihedral_coeff 461  0.0 7.25 0.0 0.0
    dihedral_coeff 462  0.0 7.25 0.0 0.0
    dihedral_coeff 463  0.0 7.25 0.0 0.0
    dihedral_coeff 464  0.0 7.25 0.0 0.0
    dihedral_coeff 465  0.0 0.0 0.0 0.0
    dihedral_coeff 466  0.0 0.0 0.0 0.0
    dihedral_coeff 467  0.0 2.1 0.0 0.0
    dihedral_coeff 468  0.0 2.1 0.0 0.0
    dihedral_coeff 469  0.0 2.1 0.0 0.0
    dihedral_coeff 470  0.0 2.1 0.0 0.0
    dihedral_coeff 471  0.0 2.1 0.0 0.0
    dihedral_coeff 472  0.0 2.1 0.0 0.0
    dihedral_coeff 473  0.0 2.1 0.0 0.0
    dihedral_coeff 474  0.0 7.25 0.0 0.0
    dihedral_coeff 475  0.0 7.25 0.0 0.0
    dihedral_coeff 476  0.0 7.25 0.0 0.0
    dihedral_coeff 477  0.0 7.25 0.0 0.0
    dihedral_coeff 478  0.0 0.0 0.0 0.0
    dihedral_coeff 479  2.074 -2.966 2.473 0.0
    dihedral_coeff 480  1.671 -4.901 0.669 0.0
    dihedral_coeff 481  0.0 2.1 0.0 0.0
    dihedral_coeff 482  0.0 2.1 0.0 0.0
    dihedral_coeff 483  0.0 2.1 0.0 0.0
    dihedral_coeff 484  0.0 2.1 0.0 0.0
    dihedral_coeff 485  0.0 2.1 0.0 0.0
    dihedral_coeff 486  0.0 2.1 0.0 0.0
    dihedral_coeff 487  0.0 2.1 0.0 0.0
    dihedral_coeff 488  0.0 2.17 0.0 0.0
    dihedral_coeff 489  0.0 3.0 0.0 0.0
    dihedral_coeff 490  0.0 2.1 0.0 0.0
    dihedral_coeff 491  0.0 2.1 0.0 0.0
    dihedral_coeff 492  0.0 2.1 0.0 0.0
    dihedral_coeff 493  0.0 2.1 0.0 0.0
    dihedral_coeff 494  0.0 2.17 0.0 0.0
    dihedral_coeff 495  0.0 2.17 0.0 0.0
    dihedral_coeff 496  0.0 7.25 0.0 0.0
    dihedral_coeff 497  0.0 2.17 0.0 0.0
    dihedral_coeff 498  0.0 2.17 0.0 0.0
    dihedral_coeff 499  0.0 2.17 0.0 0.0
    dihedral_coeff 500  0.0 2.17 0.0 0.0
    dihedral_coeff 501  0.0 0.0 0.0 0.0
    dihedral_coeff 502  -1.396 -0.427 0.0 0.0
    dihedral_coeff 503  -1.396 -0.427 0.0 0.0
    dihedral_coeff 504  0.0 0.0 0.0 0.0
    dihedral_coeff 505  0.0 0.0 0.0 0.0
    dihedral_coeff 506  0.0 0.0 0.0 0.0
    dihedral_coeff 507  0.0 0.0 0.0 0.0
    dihedral_coeff 508  0.0 0.0 0.3 0.0
    dihedral_coeff 509  0.0 0.0 0.3 0.0
    dihedral_coeff 510  0.0 0.0 0.3 0.0
    dihedral_coeff 511  -7.582 3.431 3.198 0.0
    dihedral_coeff 512  0.0 2.03 0.0 0.0
    dihedral_coeff 513  0.0 2.1 0.0 0.0
    dihedral_coeff 514  0.0 2.1 0.0 0.0
    dihedral_coeff 515  0.0 2.1 0.0 0.0
    dihedral_coeff 516  0.0 2.1 0.0 0.0
    dihedral_coeff 517  0.0 2.1 0.0 0.0
    dihedral_coeff 518  0.0 2.1 0.0 0.0
    dihedral_coeff 519  0.0 2.1 0.0 0.0
    dihedral_coeff 520  0.0 -8.0 0.0 0.0
    dihedral_coeff 521  0.0 -8.0 0.0 0.0
    dihedral_coeff 522  0.0 14.0 0.0 0.0
    dihedral_coeff 523  0.0 14.0 0.0 0.0
    dihedral_coeff 524  0.0 14.0 0.0 0.0
    dihedral_coeff 525  0.0 14.0 0.0 0.0
    dihedral_coeff 526  0.0 14.0 0.0 0.0
    dihedral_coeff 527  0.0 14.0 0.0 0.0
    dihedral_coeff 528  0.0 14.0 0.0 0.0
    dihedral_coeff 529  0.0 14.0 0.0 0.0
    dihedral_coeff 530  0.0 14.0 0.0 0.0
    dihedral_coeff 531  0.0 14.0 0.0 0.0
    dihedral_coeff 532  0.0 14.0 0.0 0.0
    dihedral_coeff 533  0.0 14.0 0.0 0.0
    dihedral_coeff 534  -1.6 14.0 0.0 0.0
    dihedral_coeff 535  0.0 14.0 0.0 0.0
    dihedral_coeff 536  0.0 14.0 0.0 0.0
    dihedral_coeff 537  0.0 14.0 0.0 0.0
    dihedral_coeff 538  0.205 -0.531 0.0 0.0
    dihedral_coeff 539  0.0 0.0 -0.372 0.0
    dihedral_coeff 540  0.0 0.0 -0.372 0.0
    dihedral_coeff 541  1.241 3.353 -0.286 0.0
    dihedral_coeff 542  0.0 14.0 0.0 0.0
    dihedral_coeff 543  0.0 14.0 0.0 0.0
    dihedral_coeff 544  0.0 14.0 0.0 0.0
    dihedral_coeff 545  0.0 14.0 0.0 0.0
    dihedral_coeff 546  0.0 14.0 0.0 0.0
    dihedral_coeff 547  0.0 14.0 0.0 0.0
    dihedral_coeff 548  0.0 14.0 0.0 0.0
    dihedral_coeff 549  0.0 14.0 0.0 0.0
    dihedral_coeff 550  0.0 14.0 0.0 0.0
    dihedral_coeff 551  0.0 14.0 0.0 0.0
    dihedral_coeff 552  0.0 14.0 0.0 0.0
    dihedral_coeff 553  0.0 2.17 0.0 0.0
    dihedral_coeff 554  0.0 2.17 0.0 0.0
    dihedral_coeff 555  0.0 7.25 0.0 0.0
    dihedral_coeff 556  0.0 7.25 0.0 0.0
    dihedral_coeff 557  0.0 7.25 0.0 0.0
    dihedral_coeff 558  0.0 2.17 0.0 0.0
    dihedral_coeff 559  0.0 2.17 0.0 0.0
    dihedral_coeff 560  0.0 0.0 0.0 0.0
    dihedral_coeff 561  0.0 0.0 0.0 0.0
    dihedral_coeff 562  0.0 7.25 0.0 0.0
    dihedral_coeff 563  0.0 7.25 0.0 0.0
    dihedral_coeff 564  0.0 7.25 0.0 0.0
    dihedral_coeff 565  0.0 7.25 0.0 0.0
    dihedral_coeff 566  0.0 7.25 0.0 0.0
    dihedral_coeff 567  0.0 7.25 0.0 0.0
    dihedral_coeff 568  0.0 7.25 0.0 0.0
    dihedral_coeff 569  0.0 7.25 0.0 0.0
    dihedral_coeff 570  0.0 7.25 0.0 0.0
    dihedral_coeff 571  0.0 7.25 0.0 0.0
    dihedral_coeff 572  0.0 7.25 0.0 0.0
    dihedral_coeff 573  0.0 7.25 0.0 0.0
    dihedral_coeff 574  0.0 7.25 0.0 0.0
    dihedral_coeff 575  0.0 7.25 0.0 0.0
    dihedral_coeff 576  0.0 7.25 0.0 0.0
    dihedral_coeff 577  0.0 7.25 0.0 0.0
    dihedral_coeff 578  0.0 7.25 0.0 0.0
    dihedral_coeff 579  0.0 1.62 0.0 -0.44
    dihedral_coeff 580  0.0 7.25 0.0 0.0
    dihedral_coeff 581  0.0 7.25 0.0 0.0
    dihedral_coeff 582  0.0 7.25 0.0 0.0
    dihedral_coeff 583  0.0 7.25 0.0 0.0
    dihedral_coeff 584  0.0 7.25 0.0 0.0
    dihedral_coeff 585  0.0 7.25 0.0 0.0
    dihedral_coeff 586  0.0 7.25 0.0 0.0
    dihedral_coeff 587  0.0 7.25 0.0 0.0
    dihedral_coeff 588  0.0 7.25 0.0 0.0
    dihedral_coeff 589  0.0 7.25 0.0 0.0
    dihedral_coeff 590  0.0 7.25 0.0 0.0
    dihedral_coeff 591  0.0 7.25 0.0 0.0
    dihedral_coeff 592  0.0 7.25 0.0 0.0
    dihedral_coeff 593  0.0 0.0 -0.372 0.0
    dihedral_coeff 594  1.241 3.353 -0.286 0.0
    dihedral_coeff 595  0.0 0.0 -0.372 0.0
    dihedral_coeff 596  1.241 3.353 -0.286 0.0
    dihedral_coeff 597  0.0 0.0 0.0 0.0
    dihedral_coeff 598  0.0 0.0 0.0 0.0
    dihedral_coeff 599  0.0 2.03 0.0 0.0
    dihedral_coeff 600  0.0 3.9 0.0 0.0
    dihedral_coeff 601  0.0 7.936 0.0 0.0
    dihedral_coeff 602  0.0 3.9 0.0 0.0
    dihedral_coeff 603  0.0 2.03 0.0 0.0
    dihedral_coeff 604  0.0 7.25 0.0 0.0
    dihedral_coeff 605  0.0 7.25 0.0 0.0
    dihedral_coeff 606  0.0 7.25 0.0 0.0
    dihedral_coeff 607  0.0 7.0 0.0 0.0
    dihedral_coeff 608  0.0 0.0 0.0 0.0
    dihedral_coeff 609  0.0 -0.9 0.0 0.0
    dihedral_coeff 610  1.656 -0.768 -0.117 0.0
    dihedral_coeff 611  0.0 7.25 0.0 0.0
    dihedral_coeff 612  0.0 7.25 0.0 0.0
    dihedral_coeff 613  0.0 7.25 0.0 0.0
    dihedral_coeff 614  0.0 7.25 0.0 0.0
    dihedral_coeff 615  0.0 7.25 0.0 0.0
    dihedral_coeff 616  0.0 7.25 0.0 0.0
    dihedral_coeff 617  0.0 7.25 0.0 0.0
    dihedral_coeff 618  0.0 7.25 0.0 0.0
    dihedral_coeff 619  0.0 7.25 0.0 0.0
    dihedral_coeff 620  0.0 3.651 0.0 0.0
    dihedral_coeff 621  0.0 1.15 0.0 0.0
    dihedral_coeff 622  0.205 -0.531 0.0 0.0
    dihedral_coeff 623  0.0 0.0 -0.372 0.0
    dihedral_coeff 624  1.241 3.353 -0.286 0.0
    dihedral_coeff 625  0.0 7.25 0.0 0.0
    dihedral_coeff 626  0.0 7.25 0.0 0.0
    dihedral_coeff 627  0.0 0.0 0.3 0.0
    dihedral_coeff 628  0.0 0.0 0.3 0.0
    dihedral_coeff 629  0.0 0.0 -0.372 0.0
    dihedral_coeff 630  0.0 0.0 0.3 0.0
    dihedral_coeff 631  0.0 0.0 -0.372 0.0
    dihedral_coeff 632  1.423 4.055 0.858 0.0
    dihedral_coeff 633  0.0 0.0 0.3 0.0
    dihedral_coeff 634  0.0 0.0 -0.372 0.0
    dihedral_coeff 635  0.0 0.0 0.3 0.0
    dihedral_coeff 636  0.0 0.0 0.3 0.0
    dihedral_coeff 637  0.0 0.0 -0.372 0.0
    dihedral_coeff 638  0.0 0.0 -0.372 0.0
    dihedral_coeff 639  0.0 0.0 -0.372 0.0
    dihedral_coeff 640  1.423 4.055 0.858 0.0
    dihedral_coeff 641  0.0 2.1 0.0 0.0
    dihedral_coeff 642  0.0 2.1 0.0 0.0
    dihedral_coeff 643  0.0 2.03 0.0 0.0
    dihedral_coeff 644  0.0 7.25 0.0 0.0
    dihedral_coeff 645  0.0 7.25 0.0 0.0
    dihedral_coeff 646  0.0 7.25 0.0 0.0
    dihedral_coeff 647  0.0 7.25 0.0 0.0
    dihedral_coeff 648  0.0 7.25 0.0 0.0
    dihedral_coeff 649  0.0 7.25 0.0 0.0
    dihedral_coeff 650  0.0 10.0 0.0 0.0
    dihedral_coeff 651  0.0 7.25 0.0 0.0
    dihedral_coeff 652  0.0 7.25 0.0 0.0
    dihedral_coeff 653  0.0 7.25 0.0 0.0
    dihedral_coeff 654  0.0 7.25 0.0 0.0
    dihedral_coeff 655  0.0 5.0 0.0 0.0
    dihedral_coeff 656  0.0 10.0 0.0 0.0
    dihedral_coeff 657  0.0 10.0 0.0 0.0
    dihedral_coeff 658  0.0 3.05 0.0 0.0
    dihedral_coeff 659  0.0 4.65 0.0 0.0
    dihedral_coeff 660  0.0 10.0 0.0 0.0
    dihedral_coeff 661  0.0 5.0 0.0 0.0
    dihedral_coeff 662  0.0 2.8 0.0 0.0
    dihedral_coeff 663  0.0 5.0 0.0 0.0
    dihedral_coeff 664  0.0 2.17 0.0 0.0
    dihedral_coeff 665  0.0 2.17 0.0 0.0
    dihedral_coeff 666  0.0 7.25 0.0 0.0
    dihedral_coeff 667  0.0 7.25 0.0 0.0
    dihedral_coeff 668  0.0 3.35 0.0 0.0
    dihedral_coeff 669  0.0 6.0 0.0 0.0
    dihedral_coeff 670  0.0 7.25 0.0 0.0
    dihedral_coeff 671  0.0 7.25 0.0 0.0
    dihedral_coeff 672  0.0 7.25 0.0 0.0
    dihedral_coeff 673  0.0 10.0 0.0 0.0
    dihedral_coeff 674  0.0 10.0 0.0 0.0
    dihedral_coeff 675  0.0 7.25 0.0 0.0
    dihedral_coeff 676  0.0 10.0 0.0 0.0
    dihedral_coeff 677  0.0 7.25 0.0 0.0
    dihedral_coeff 678  0.0 7.25 0.0 0.0
    dihedral_coeff 679  0.0 7.25 0.0 0.0
    dihedral_coeff 680  0.0 4.8 0.0 0.0
    dihedral_coeff 681  0.0 7.25 0.0 0.0
    dihedral_coeff 682  0.0 7.25 0.0 0.0
    dihedral_coeff 683  0.0 10.0 0.0 0.0
    dihedral_coeff 684  0.0 7.25 0.0 0.0
    dihedral_coeff 685  0.0 7.25 0.0 0.0
    dihedral_coeff 686  0.0 13.05 0.0 0.0
    dihedral_coeff 687  0.0 2.17 0.0 0.0
    dihedral_coeff 688  0.0 2.17 0.0 0.0
    dihedral_coeff 689  0.0 2.17 0.0 0.0
    dihedral_coeff 690  0.0 2.17 0.0 0.0
    dihedral_coeff 691  0.0 2.17 0.0 0.0
    dihedral_coeff 692  0.0 7.25 0.0 0.0
    dihedral_coeff 693  0.0 10.75 0.0 0.0
    dihedral_coeff 694  0.0 10.75 0.0 0.0
    dihedral_coeff 695  0.0 10.75 0.0 0.0
    dihedral_coeff 696  0.0 10.75 0.0 0.0
    dihedral_coeff 697  0.0 10.75 0.0 0.0
    dihedral_coeff 698  0.0 7.25 0.0 0.0
    dihedral_coeff 699  0.0 7.25 0.0 0.0
    dihedral_coeff 700  0.0 7.25 0.0 0.0
    dihedral_coeff 701  0.0 2.17 0.0 0.0
    dihedral_coeff 702  0.0 2.17 0.0 0.0
    dihedral_coeff 703  0.0 2.17 0.0 0.0
    dihedral_coeff 704  0.0 2.17 0.0 0.0
    dihedral_coeff 705  0.0 10.75 0.0 0.0
    dihedral_coeff 706  0.0 10.75 0.0 0.0
    dihedral_coeff 707  0.0 10.75 0.0 0.0
    dihedral_coeff 708  0.0 10.75 0.0 0.0
    dihedral_coeff 709  0.0 2.17 0.0 0.0
    dihedral_coeff 710  0.0 2.17 0.0 0.0
    dihedral_coeff 711  0.0 2.17 0.0 0.0
    dihedral_coeff 712  0.0 2.17 0.0 0.0
    dihedral_coeff 713  0.0 7.25 0.0 0.0
    dihedral_coeff 714  0.0 7.25 0.0 0.0
    dihedral_coeff 715  0.0 7.25 0.0 0.0
    dihedral_coeff 716  0.0 7.25 0.0 0.0
    dihedral_coeff 717  0.0 10.75 0.0 0.0
    dihedral_coeff 718  0.0 7.25 0.0 0.0
    dihedral_coeff 719  0.0 7.25 0.0 0.0
    dihedral_coeff 720  0.0 7.25 0.0 0.0
    dihedral_coeff 721  0.0 7.25 0.0 0.0
    dihedral_coeff 722  0.0 2.17 0.0 0.0
    dihedral_coeff 723  0.0 2.17 0.0 0.0
    dihedral_coeff 724  0.0 2.17 0.0 0.0
    dihedral_coeff 725  0.0 2.17 0.0 0.0
    dihedral_coeff 726  0.0 2.17 0.0 0.0
    dihedral_coeff 727  0.0 2.17 0.0 0.0
    dihedral_coeff 728  0.0 2.17 0.0 0.0
    dihedral_coeff 729  0.0 2.17 0.0 0.0
    dihedral_coeff 730  0.0 2.17 0.0 0.0
    dihedral_coeff 731  0.0 7.25 0.0 0.0
    dihedral_coeff 732  0.0 6.089 0.0 0.0
    dihedral_coeff 733  0.0 4.9 0.0 0.0
    dihedral_coeff 734  0.0 6.089 0.0 0.0
    dihedral_coeff 735  0.0 20.0 0.0 0.0
    dihedral_coeff 736  2.3 6.089 0.0 0.0
    dihedral_coeff 737  0.0 4.9 0.0 0.0
    dihedral_coeff 738  2.3 6.089 0.0 0.0
    dihedral_coeff 739  2.3 6.089 0.0 0.0
    dihedral_coeff 740  0.0 0.0 0.0 0.0
    dihedral_coeff 741  0.0 0.0 0.0 0.0
    dihedral_coeff 742  0.0 0.0 0.0 0.0
    dihedral_coeff 743  0.0 0.0 0.0 0.0
    dihedral_coeff 744  0.0 0.0 0.0 0.0
    dihedral_coeff 745  0.0 0.0 0.0 0.0
    dihedral_coeff 746  0.0 0.0 0.0 0.0
    dihedral_coeff 747  0.0 0.0 0.0 0.0
    dihedral_coeff 748  0.0 0.0 0.0 0.0
    dihedral_coeff 749  0.0 0.0 0.0 0.0
    dihedral_coeff 750  0.0 0.0 0.0 0.0
    dihedral_coeff 751  0.0 0.0 0.0 0.0
    dihedral_coeff 752  0.0 0.0 0.0 0.0
    dihedral_coeff 753  0.0 0.0 0.0 0.0
    dihedral_coeff 754  0.0 0.0 0.0 0.0
    dihedral_coeff 755  0.0 14.0 0.0 0.0
    dihedral_coeff 756  0.0 14.0 0.0 0.0
    dihedral_coeff 757  0.0 14.0 0.0 0.0
    dihedral_coeff 758  0.0 14.0 0.0 0.0
    dihedral_coeff 759  0.0 14.0 0.0 0.0
    dihedral_coeff 760  0.0 14.0 0.0 0.0
    dihedral_coeff 761  0.0 14.0 0.0 0.0
    dihedral_coeff 762  0.0 14.0 0.0 0.0
    dihedral_coeff 763  0.0 14.0 0.0 0.0
    dihedral_coeff 764  0.0 14.0 0.0 0.0
    dihedral_coeff 765  0.0 14.0 0.0 0.0
    dihedral_coeff 766  0.0 14.0 0.0 0.0
    dihedral_coeff 767  0.0 14.0 0.0 0.0
    dihedral_coeff 768  0.0 14.0 0.0 0.0
    dihedral_coeff 769  0.0 14.0 0.0 0.0
    dihedral_coeff 770  1.423 4.055 0.858 0.0
    dihedral_coeff 771  1.816 1.222 1.581 0.0
    dihedral_coeff 772  0.0 0.82 0.0 0.0
    dihedral_coeff 773  1.0 0.0 0.0 0.0
    dihedral_coeff 774  -1.697 -0.456 0.585 0.0
    dihedral_coeff 775  -1.697 -0.456 0.585 0.0
    dihedral_coeff 776  -1.697 -0.456 0.585 0.0
    dihedral_coeff 777  6.28 -1.467 2.03 0.0
    dihedral_coeff 778  1.428 0.086 0.029 0.0
    dihedral_coeff 779  1.428 0.086 0.029 0.0
    dihedral_coeff 780  2.732 -0.229 0.485 0.0
    dihedral_coeff 781  0.845 -0.962 0.713 0.0
    dihedral_coeff 782  1.0 0.0 0.0 0.0
    dihedral_coeff 783  0.845 -0.962 0.713 0.0
    dihedral_coeff 784  1.0 0.0 0.0 0.0
    dihedral_coeff 785  0.845 -0.962 0.713 0.0
    dihedral_coeff 786  0.0 0.0 0.462 0.0
    dihedral_coeff 787  1.0 0.0 0.0 0.0
    dihedral_coeff 788  1.438 -0.124 0.264 0.0
    dihedral_coeff 789  0.0 0.0 0.347 0.0
    dihedral_coeff 790  0.0 0.0 0.347 0.0
    dihedral_coeff 791  0.0 0.0 0.0 0.0
    dihedral_coeff 792  0.0 0.0 0.0 0.0
    dihedral_coeff 793  1.7 -0.6 0.0 0.0
    dihedral_coeff 794  0.0 0.0 0.0 0.0
    dihedral_coeff 795  0.0 3.9 0.0 0.0
    dihedral_coeff 796  0.0 7.25 0.0 0.0
    dihedral_coeff 797  0.0 5.0 0.0 0.0
    dihedral_coeff 798  0.0 10.75 0.0 0.0
    dihedral_coeff 799  1.3 -0.05 0.2 0.0
    dihedral_coeff 800  1.3 -0.05 0.2 0.0
    # The following force field parameters were converted from
    # the tinker parameter file (oplsaa.prm) and then edited by hand:
    # Thanks to David Huang (adelaide.edu.au) for the corrections:

    improper_coeff 1  10.5 180.0  # (moltemplate)
    # <==> "imptors 0 0 3 4  21.000 180.0 2" in oplsaa.prm (tinker)
    # <==> "define improper_O_C_X_Y 180.0 43.93200 2" in oplsaa.ff (gromacs)

    improper_coeff 2  10.5 180.0  # (moltemplate)
    # <==> "imptors 0 0 3 52  21.000 180.0 2" in oplsaa.prm (tinker)
    # <==> "define improper_O_C_X_Y 180.0 43.93200 2" in oplsaa.ff (gromacs)

    improper_coeff 3  1.0 180.0  # (moltemplate)
    # <==> "imptors 0 0 24 0  5.000 180.0 2" in oplsaa.prm (tinker) - INCORRECT?
    # <==> "define improper_Z_N_X_Y 180.0 4.18400 2" in oplsaa.ff (gromacs)

    improper_coeff 4  15.0 180.0  # (moltemplate)
    # <==> "imptors 0 0 47 0  30.000 180.0 2" in oplsaa.prm (tinker)
    # <==> "define improper_Z_CM_X_Y 180.0 62.76000 2" in oplsaa.ff (gromacs)

    improper_coeff 5  1.1 180.0  # (moltemplate)
    # <==> "imptors 0 0 48 0  5.000 180.0 2" in oplsaa.prm (tinker) - INCORRECT?
    # <==> "define improper_Z_CA_X_Y 180.0 4.60240 2" in oplsaa.ff (gromacs)

    improper_coeff 6  10.5 180.0
    # <==> "define improper_N2_X_N2_N2 180.0 43.93200" in oplsaa.ff (gromacs)
    # <==> no corresponding line found in oplsaa.prm (tinker)

    # --- As of 2017-9-13, I am unsure if I should add this rule: ----
    # The gromacs file for oplsaa include the following line:
    # "define improper_X_NO_ON_NO 180.0 43.93200" in oplsaa.ff (gromacs)
    # but there is no corresponding line found in oplsaa.prm (tinker)
    # and there is no corresponding line from opls-a.prm (emc (BASF))
    # I'm not sure what the "NO" and "ON" correspond to.  If I had to guess,
    # the corresponding moltemplate line might be one of these two choices:
    # improper_coeff @improper:X_103_102_102  10.5 180.0  ?
    # improper_coeff @improper:X_102_103_103  10.5 180.0  ?
    # but I'd prefer to leave this out.

include         system.in.charges
    #--------------------- IMPORTANT -----------------------
    # The first 56 atom types (excluding 48,49) are not intended for use in an
    # ordinary (all-atom) simulation.  Instead, these atoms were intended for
    # use with "United Atom" molecules which lack hydrogen atoms.
    # (They belong to the OPLSUA force field, not the OPLSAA force field.)
    #--------------------------------------------------------
    set type 1 charge -0.22  # "Fluoride -CH2-F (UA)"    DON'T USE(OPLSUA)
Setting atom values ...
  0 settings made for charge
    set type 2 charge 0.22  # "Fluoride -CH2-F (UA)"     DON'T USE(OPLSUA)
Setting atom values ...
  0 settings made for charge
    set type 3 charge 0.55  # "Acetic Acid -COOH (UA)"   DON'T USE(OPLSUA)
Setting atom values ...
  0 settings made for charge
    set type 4 charge -0.5  # "Acetic Acid >C=O (UA)"    DON'T USE(OPLSUA)
Setting atom values ...
  0 settings made for charge
    set type 5 charge -0.58  # "Acetic Acid -OH (UA)"    DON'T USE(OPLSUA)
Setting atom values ...
  0 settings made for charge
    set type 6 charge 0.08  # "Acetic Acid CH3- (UA)"    DON'T USE(OPLSUA)
Setting atom values ...
  0 settings made for charge
    set type 7 charge 0.45  # "Acetic Acid -OH (UA)"     DON'T USE(OPLSUA)
Setting atom values ...
  0 settings made for charge
    set type 8 charge 0.0  # "Methane CH4 (UA)"          DON'T USE(OPLSUA)
Setting atom values ...
  0 settings made for charge
    set type 9 charge 0.0  # "Ethane CH3- (UA)"          DON'T USE(OPLSUA)
Setting atom values ...
  0 settings made for charge
    set type 10 charge 0.0  # "N-Alkane CH3- (UA)"       DON'T USE(OPLSUA)
Setting atom values ...
  0 settings made for charge
    set type 11 charge 0.0  # "Isobutane CH3- (UA)"      DON'T USE(OPLSUA)
Setting atom values ...
  0 settings made for charge
    set type 12 charge 0.0  # "Neopentane CH3- (UA)"     DON'T USE(OPLSUA)
Setting atom values ...
  0 settings made for charge
    set type 13 charge 0.0  # "Alkanes -CH2- (UA)"       DON'T USE(OPLSUA)
Setting atom values ...
  0 settings made for charge
    set type 14 charge 0.0  # "1-Alkene CH2= (UA)"       DON'T USE(OPLSUA)
Setting atom values ...
  0 settings made for charge
    set type 15 charge 0.0  # "Isobutane CH (UA)"        DON'T USE(OPLSUA)
Setting atom values ...
  0 settings made for charge
    set type 16 charge 0.0  # "2-Alkene -CH= (UA)"       DON'T USE(OPLSUA)
Setting atom values ...
  0 settings made for charge
    set type 17 charge 0.0  # "Aromatic CH (UA)"         DON'T USE(OPLSUA)
Setting atom values ...
  0 settings made for charge
    set type 18 charge 0.0  # "Neopentane C (UA)"        DON'T USE(OPLSUA)
Setting atom values ...
  0 settings made for charge
    set type 19 charge 0.0  # "Isobutene >C= (UA)"       DON'T USE(OPLSUA)
Setting atom values ...
  0 settings made for charge
    set type 20 charge -0.7  # "Alcohol OH (UA)"         DON'T USE(OPLSUA)
Setting atom values ...
  0 settings made for charge
    set type 21 charge 0.435  # "Alcohol OH (UA)"        DON'T USE(OPLSUA)
Setting atom values ...
  0 settings made for charge
    set type 22 charge 0.265  # "Methanol CH3- (UA)"     DON'T USE(OPLSUA)
Setting atom values ...
  0 settings made for charge
    set type 23 charge 0.265  # "Ethanol -CH2OH (UA)"    DON'T USE(OPLSUA)
Setting atom values ...
  0 settings made for charge
    set type 24 charge -0.47  # "Hydrogen Sulfide H2S"   DON'T USE(OPLSUA)
Setting atom values ...
  0 settings made for charge
    set type 25 charge -0.45  # "Alkyl Sulfide RSH (UA)" DON'T USE(OPLSUA)
Setting atom values ...
  0 settings made for charge
    set type 26 charge -0.47  # "Thioether RSR (UA)"     DON'T USE(OPLSUA)
Setting atom values ...
  0 settings made for charge
    set type 27 charge -0.3  # "Disulfide RSSR (UA)"     DON'T USE(OPLSUA)
Setting atom values ...
  0 settings made for charge
    set type 28 charge 0.235  # "Hydrogen Sulfide H2S"   DON'T USE(OPLSUA)
Setting atom values ...
  0 settings made for charge
    set type 29 charge 0.27  # "Alkyl Sulfide RSH (UA)"  DON'T USE(OPLSUA)
Setting atom values ...
  0 settings made for charge
    set type 30 charge 0.18  # "Methyl Sulfide CH3 (UA)" DON'T USE(OPLSUA)
Setting atom values ...
  0 settings made for charge
    set type 31 charge 0.18  # "Alkyl Sulfide CH2 (UA)"  DON'T USE(OPLSUA)
Setting atom values ...
  0 settings made for charge
    set type 32 charge 0.235  # "Thioether CH3 (UA)"     DON'T USE(OPLSUA)
Setting atom values ...
  0 settings made for charge
    set type 33 charge 0.235  # "Thioether CH2 (UA)"     DON'T USE(OPLSUA)
Setting atom values ...
  0 settings made for charge
    set type 34 charge 0.3  # "Disulfide CH3 (UA)"       DON'T USE(OPLSUA)
Setting atom values ...
  0 settings made for charge
    set type 35 charge 0.3  # "Disulfide CH2 (UA)"       DON'T USE(OPLSUA)
Setting atom values ...
  0 settings made for charge
    set type 36 charge -0.43  # "Acetonitrile -CN (UA)"  DON'T USE(OPLSUA)
Setting atom values ...
  0 settings made for charge
    set type 37 charge 0.28  # "Acetonitrile -CN (UA)"   DON'T USE(OPLSUA)
Setting atom values ...
  0 settings made for charge
    set type 38 charge 0.15  # "Acetonitrile CH3 (UA)"   DON'T USE(OPLSUA)
Setting atom values ...
  0 settings made for charge
    set type 39 charge 0.265  # "Isopropanol >CHOH (UA)" DON'T USE(OPLSUA)
Setting atom values ...
  0 settings made for charge
    set type 40 charge 0.265  # "t-Butanol COH (UA)"     DON'T USE(OPLSUA)
Setting atom values ...
  0 settings made for charge
    set type 41 charge -0.5  # "Ether ROR (UA)"          DON'T USE(OPLSUA)
Setting atom values ...
  0 settings made for charge
    set type 42 charge 0.25  # "Ether CH3-OR (UA)"       DON'T USE(OPLSUA)
Setting atom values ...
  0 settings made for charge
    set type 43 charge 0.25  # "Ether -CH2-OR (UA)"      DON'T USE(OPLSUA)
Setting atom values ...
  0 settings made for charge
    set type 44 charge 0.5  # "Methylene Chloride (UA)"  DON'T USE(OPLSUA)
Setting atom values ...
  0 settings made for charge
    set type 45 charge -0.25  # "Methylene Chloride (UA)"DON'T USE(OPLSUA)
Setting atom values ...
  0 settings made for charge
    set type 46 charge 0.42  # "Chloroform CHCl3 (UA)"   DON'T USE(OPLSUA)
Setting atom values ...
  0 settings made for charge
    set type 47 charge -0.14  # "Chloroform CHCl3 (UA)"  DON'T USE(OPLSUA)
Setting atom values ...
  0 settings made for charge
    set type 48 charge 0.248  # "Carbon Tetrachloride"
Setting atom values ...
  0 settings made for charge
    set type 49 charge -0.062  # "Carbon Tetrachloride"
Setting atom values ...
  0 settings made for charge
    set type 50 charge 0.139  # "DMSO >S=O (UA)"         DON'T USE(OPLSUA)
Setting atom values ...
  0 settings made for charge
    set type 51 charge -0.459  # "DMSO >S=O (UA)"        DON'T USE(OPLSUA)
Setting atom values ...
  0 settings made for charge
    set type 52 charge 0.16  # "DMSO CH3- (UA)"          DON'T USE(OPLSUA)
Setting atom values ...
  0 settings made for charge
    set type 53 charge -0.5  # "DMF C=O (UA)"            DON'T USE(OPLSUA)
Setting atom values ...
  0 settings made for charge
    set type 54 charge -0.57  # "DMF CON< (UA)"          DON'T USE(OPLSUA)
Setting atom values ...
  0 settings made for charge
    set type 55 charge 0.5  # "DMF C=O (UA)"             DON'T USE(OPLSUA)
Setting atom values ...
  0 settings made for charge
    set type 56 charge 0.285  # "DMF CH3- (UA)"          DON'T USE(OPLSUA)
Setting atom values ...
  0 settings made for charge
    #--------------------------------------------------------
    # ORDINARY (OPLSAA) ATOM TYPES BEGIN HERE:
    # Do not use the "UA" atom types above this line in an all-atom simulation.
    #--------------------------------------------------------
    set type 57 charge 0.0  # "Dummy Atom"
Setting atom values ...
  0 settings made for charge
    set type 58 charge 0.0  # "Helium Atom"
Setting atom values ...
  0 settings made for charge
    set type 59 charge 0.0  # "Neon Atom"
Setting atom values ...
  0 settings made for charge
    set type 60 charge 0.0  # "Argon Atom"
Setting atom values ...
  0 settings made for charge
    set type 61 charge 0.0  # "Krypton Atom"
Setting atom values ...
  0 settings made for charge
    set type 62 charge 0.0  # "Xenon Atom"
Setting atom values ...
  0 settings made for charge
    set type 63 charge -0.834  # "TIP3P Water O"
Setting atom values ...
  0 settings made for charge
    set type 64 charge 0.417  # "TIP3P Water H"
Setting atom values ...
  0 settings made for charge
    set type 65 charge 0.0  # "TIP4P Water O"
Setting atom values ...
  0 settings made for charge
    set type 66 charge 0.52  # "TIP4P Water H"
Setting atom values ...
  0 settings made for charge
    set type 67 charge -1.04  # "TIP4P Water M"
Setting atom values ...
  0 settings made for charge
    set type 68 charge -0.822  # "TIP3F Water O"
Setting atom values ...
  0 settings made for charge
    set type 69 charge 0.411  # "TIP3F Water H"
Setting atom values ...
  0 settings made for charge
    set type 70 charge 0.0  # "TIP4F Water O"
Setting atom values ...
  0 settings made for charge
    set type 71 charge 0.511  # "TIP4F Water H"
Setting atom values ...
  0 settings made for charge
    set type 72 charge -1.022  # "TIP4F Water M"
Setting atom values ...
  0 settings made for charge
    set type 73 charge 0.0  # "TIP5P Water O"
Setting atom values ...
  0 settings made for charge
    set type 74 charge 0.241  # "TIP5P Water H"
Setting atom values ...
  0 settings made for charge
    set type 75 charge -0.241  # "TIP5P Water LP"
Setting atom values ...
  0 settings made for charge
    set type 76 charge -0.82  # "SPC Water O"
Setting atom values ...
  0 settings made for charge
    set type 77 charge 0.41  # "SPC Water H"
Setting atom values ...
  0 settings made for charge
    set type 78 charge -1.02  # "Ammonia NH3"
Setting atom values ...
  0 settings made for charge
    set type 79 charge 0.34  # "Ammonia NH3"
Setting atom values ...
  0 settings made for charge
    set type 80 charge -0.18  # "Alkane CH3-"
Setting atom values ...
  0 settings made for charge
    set type 81 charge -0.12  # "Alkane -CH2-"
Setting atom values ...
  0 settings made for charge
    set type 82 charge -0.06  # "Alkane >CH-"
Setting atom values ...
  0 settings made for charge
    set type 83 charge -0.24  # "Methane CH4"
Setting atom values ...
  0 settings made for charge
    set type 84 charge 0.0  # "Alkane >C<"
Setting atom values ...
  0 settings made for charge
    set type 85 charge 0.06  # "Alkane H-C"
Setting atom values ...
  0 settings made for charge
    set type 86 charge 0.0  # "Alkene R2-C="
Setting atom values ...
  0 settings made for charge
    set type 87 charge -0.115  # "Alkene RH-C="
Setting atom values ...
  0 settings made for charge
    set type 88 charge -0.23  # "Alkene H2-C="
Setting atom values ...
  0 settings made for charge
    set type 89 charge 0.115  # "Alkene H-C="
Setting atom values ...
  0 settings made for charge
    set type 90 charge -0.115  # "Aromatic C"
Setting atom values ...
  0 settings made for charge
    set type 91 charge 0.115  # "Aromatic H-C"
Setting atom values ...
  0 settings made for charge
    set type 92 charge 0.0  # "Naphthalene Fusion C"
Setting atom values ...
  0 settings made for charge
    set type 93 charge -0.065  # "Ethyl Benzene CH3-"
Setting atom values ...
  0 settings made for charge
    set type 94 charge -0.005  # "Ethyl Benzene -CH2-"
Setting atom values ...
  0 settings made for charge
    set type 95 charge -0.115  # "Diene =CH-CH="
Setting atom values ...
  0 settings made for charge
    set type 96 charge -0.683  # "Alcohol -OH"
Setting atom values ...
  0 settings made for charge
    set type 97 charge 0.418  # "Alcohol -OH"
Setting atom values ...
  0 settings made for charge
    set type 98 charge 0.04  # "Methanol CH3-"
Setting atom values ...
  0 settings made for charge
    set type 99 charge 0.145  # "Alcohol CH3OH & RCH2OH"
Setting atom values ...
  0 settings made for charge
    set type 100 charge 0.205  # "Alcohol R2CHOH"
Setting atom values ...
  0 settings made for charge
    set type 101 charge 0.265  # "Alcohol R3COH"
Setting atom values ...
  0 settings made for charge
    set type 102 charge 0.1263  # "Trifluoroethanol -CH2-"
Setting atom values ...
  0 settings made for charge
    set type 103 charge 0.5323  # "Trifluoroethanol CF3-"
Setting atom values ...
  0 settings made for charge
    set type 104 charge -0.6351  # "Trifluoroethanol -OH"
Setting atom values ...
  0 settings made for charge
    set type 105 charge 0.4286  # "Trifluoroethanol -OH"
Setting atom values ...
  0 settings made for charge
    set type 106 charge -0.2057  # "Trifluoroethanol F"
Setting atom values ...
  0 settings made for charge
    set type 107 charge 0.0825  # "Trifluoroethanol -CH2-"
Setting atom values ...
  0 settings made for charge
    set type 108 charge 0.15  # "Phenol C-OH"
Setting atom values ...
  0 settings made for charge
    set type 109 charge -0.585  # "Phenol -OH"
Setting atom values ...
  0 settings made for charge
    set type 110 charge 0.435  # "Phenol -OH"
Setting atom values ...
  0 settings made for charge
    set type 111 charge -0.7  # "Diol -OH"
Setting atom values ...
  0 settings made for charge
    set type 112 charge 0.435  # "Diol -OH"
Setting atom values ...
  0 settings made for charge
    set type 113 charge -0.73  # "Triol -OH"
Setting atom values ...
  0 settings made for charge
    set type 114 charge 0.465  # "Triol -OH"
Setting atom values ...
  0 settings made for charge
    set type 115 charge 0.145  # "Diol & Triol -CH2OH"
Setting atom values ...
  0 settings made for charge
    set type 116 charge 0.205  # "Diol & Triol -CHROH"
Setting atom values ...
  0 settings made for charge
    set type 117 charge 0.265  # "Diol & Triol -CR2OH"
Setting atom values ...
  0 settings made for charge
    set type 118 charge 0.06  # "Diol & Triol H-COH"
Setting atom values ...
  0 settings made for charge
    set type 119 charge -0.17  # "Diphenyl Ether"
Setting atom values ...
  0 settings made for charge
    set type 120 charge 0.0  # "Diene =CR-CR="
Setting atom values ...
  0 settings made for charge
    set type 121 charge -0.285  # "Anisole -OCH3"
Setting atom values ...
  0 settings made for charge
    set type 122 charge -0.4  # "Dialkyl Ether -O-"
Setting atom values ...
  0 settings made for charge
    set type 123 charge 0.11  # "Methyl Ether CH3OR"
Setting atom values ...
  0 settings made for charge
    set type 124 charge 0.14  # "Ethyl Ether -CH2OR"
Setting atom values ...
  0 settings made for charge
    set type 125 charge 0.17  # "Isopropyl Ether >CHOR"
Setting atom values ...
  0 settings made for charge
    set type 126 charge 0.2  # "t-Butyl Ether COR"
Setting atom values ...
  0 settings made for charge
    set type 127 charge 0.03  # "Alkyl Ether H-COR"
Setting atom values ...
  0 settings made for charge
    set type 128 charge -0.4  # "Acetal RO-CR2OX"
Setting atom values ...
  0 settings made for charge
    set type 129 charge -0.7  # "Hemiacetal -OH"
Setting atom values ...
  0 settings made for charge
    set type 130 charge 0.435  # "Hemiacetal -OH"
Setting atom values ...
  0 settings made for charge
    set type 131 charge 0.2  # "Acetal RO-CH2-OR"
Setting atom values ...
  0 settings made for charge
    set type 132 charge 0.1  # "Acetal RO-CH2-OR"
Setting atom values ...
  0 settings made for charge
    set type 133 charge 0.265  # "Hemiacetal RO-CH2-OH"
Setting atom values ...
  0 settings made for charge
    set type 134 charge 0.1  # "Hemiacetal RO-CH2-OH"
Setting atom values ...
  0 settings made for charge
    set type 135 charge 0.3  # "Acetal RO-CHR-OR"
Setting atom values ...
  0 settings made for charge
    set type 136 charge 0.1  # "Acetal RO-CHR-OR"
Setting atom values ...
  0 settings made for charge
    set type 137 charge 0.365  # "Hemiacetal RO-CHR-OH"
Setting atom values ...
  0 settings made for charge
    set type 138 charge 0.1  # "Hemiacetal RO-CHR-OH"
Setting atom values ...
  0 settings made for charge
    set type 139 charge 0.4  # "Acetal RO-CR2-OR"
Setting atom values ...
  0 settings made for charge
    set type 140 charge 0.465  # "Hemiacetal RO-CR2-OH"
Setting atom values ...
  0 settings made for charge
    set type 141 charge 0.085  # "Anisole C-OCH3"
Setting atom values ...
  0 settings made for charge
    set type 142 charge -0.335  # "Thiol -SH"
Setting atom values ...
  0 settings made for charge
    set type 143 charge -0.47  # "Hydrogen Sulfide H2S"
Setting atom values ...
  0 settings made for charge
    set type 144 charge -0.435  # "Sulfide -S-"
Setting atom values ...
  0 settings made for charge
    set type 145 charge -0.2175  # "Disulfide -S-S-"
Setting atom values ...
  0 settings made for charge
    set type 146 charge 0.155  # "Thiol -SH"
Setting atom values ...
  0 settings made for charge
    set type 147 charge 0.235  # "Hydrogen Sulfide H2S"
Setting atom values ...
  0 settings made for charge
    set type 148 charge 0.06  # "Thiol -CH2-SH"
Setting atom values ...
  0 settings made for charge
    set type 149 charge 0.12  # "Thiol >CH-SH"
Setting atom values ...
  0 settings made for charge
    set type 150 charge 0.18  # "Thiol C-SH"
Setting atom values ...
  0 settings made for charge
    set type 151 charge 0.0375  # "Methyl Sulfide CH3-SR"
Setting atom values ...
  0 settings made for charge
    set type 152 charge 0.0975  # "Sulfide RCH2-SR"
Setting atom values ...
  0 settings made for charge
    set type 153 charge 0.1575  # "Sulfide R2CH-SR"
Setting atom values ...
  0 settings made for charge
    set type 154 charge 0.2175  # "Sulfide R3C-SR"
Setting atom values ...
  0 settings made for charge
    set type 155 charge 0.0375  # "Disulfide CH3-S-SR"
Setting atom values ...
  0 settings made for charge
    set type 156 charge 0.0975  # "Disulfide RCH2-S-SR"
Setting atom values ...
  0 settings made for charge
    set type 157 charge 0.1575  # "Disulfide R2CH-S-SR"
Setting atom values ...
  0 settings made for charge
    set type 158 charge 0.2175  # "Disulfide R3C-S-SR"
Setting atom values ...
  0 settings made for charge
    set type 159 charge 0.0  # "Methanethiol CH3-SH"
Setting atom values ...
  0 settings made for charge
    set type 160 charge 0.2  # "Benzyl Alcohol -CH2OH"
Setting atom values ...
  0 settings made for charge
    set type 161 charge 0.26  # "Benzyl Alcohol -CHROH"
Setting atom values ...
  0 settings made for charge
    set type 162 charge 0.32  # "Benzyl Alcohol -CR2OH"
Setting atom values ...
  0 settings made for charge
    set type 163 charge -0.055  # "Benzyl Alcohol/Nitrile"
Setting atom values ...
  0 settings made for charge
    set type 164 charge -0.32  # "Thioanisole -SCH3"
Setting atom values ...
  0 settings made for charge
    set type 165 charge 0.08  # "RCH2-NH2 & GLY CA"
Setting atom values ...
  0 settings made for charge
    set type 166 charge 0.14  # "RCHR-NH2 & ALA CA"
Setting atom values ...
  0 settings made for charge
    set type 167 charge 0.2  # "R3C-NH2 & AIB CA"
Setting atom values ...
  0 settings made for charge
    set type 168 charge -0.12  # "Chloroalkene Cl-CH="
Setting atom values ...
  0 settings made for charge
    set type 169 charge 0.005  # "Chloroalkene Cl-CH="
Setting atom values ...
  0 settings made for charge
    set type 170 charge 0.1025  # "Thioanisole C-SCH3"
Setting atom values ...
  0 settings made for charge
    set type 171 charge 0.14  # "Amide -NH-CHR2"
Setting atom values ...
  0 settings made for charge
    set type 172 charge 0.2  # "Amide -NH-CR3"
Setting atom values ...
  0 settings made for charge
    set type 173 charge 0.7  # "Benzophenone C=O"
Setting atom values ...
  0 settings made for charge
    set type 174 charge 0.565  # "Benzaldehyde C=O"
Setting atom values ...
  0 settings made for charge
    set type 175 charge 0.585  # "Acetophenone C=O"
Setting atom values ...
  0 settings made for charge
    set type 176 charge 0.615  # "Benzamide C=O"
Setting atom values ...
  0 settings made for charge
    set type 177 charge 0.5  # "Amide C=O"
Setting atom values ...
  0 settings made for charge
    set type 178 charge -0.5  # "Amide C=O"
Setting atom values ...
  0 settings made for charge
    set type 179 charge -0.76  # "Amide -CO-NH2"
Setting atom values ...
  0 settings made for charge
    set type 180 charge -0.5  # "Amide -CO-NHR"
Setting atom values ...
  0 settings made for charge
    set type 181 charge -0.14  # "Amide -CO-NR2"
Setting atom values ...
  0 settings made for charge
    set type 182 charge 0.38  # "Amide -CO-NH2"
Setting atom values ...
  0 settings made for charge
    set type 183 charge 0.3  # "Amide -CO-NHR"
Setting atom values ...
  0 settings made for charge
    set type 184 charge 0.02  # "Amide -NH-CH3"
Setting atom values ...
  0 settings made for charge
    set type 185 charge -0.11  # "Amide -NR-CH3"
Setting atom values ...
  0 settings made for charge
    set type 186 charge 0.08  # "Amide -NH-CH2R"
Setting atom values ...
  0 settings made for charge
    set type 187 charge -0.05  # "Amide -NR-CH2R & PRO CD"
Setting atom values ...
  0 settings made for charge
    set type 188 charge 0.01  # "Amide -NR-CHR2 & PRO CA"
Setting atom values ...
  0 settings made for charge
    set type 189 charge 0.142  # "Urea C=O"
Setting atom values ...
  0 settings made for charge
    set type 190 charge -0.39  # "Urea C=O"
Setting atom values ...
  0 settings made for charge
    set type 191 charge -0.542  # "Urea -NH2"
Setting atom values ...
  0 settings made for charge
    set type 192 charge 0.333  # "Urea -NH2"
Setting atom values ...
  0 settings made for charge
    set type 193 charge -0.49  # "Imide -NH-"
Setting atom values ...
  0 settings made for charge
    set type 194 charge 0.42  # "Imide C=O"
Setting atom values ...
  0 settings made for charge
    set type 195 charge -0.42  # "Imide C=O"
Setting atom values ...
  0 settings made for charge
    set type 196 charge 0.37  # "Imide -NH-"
Setting atom values ...
  0 settings made for charge
    set type 197 charge 0.06  # "Formimide H-C=O"
Setting atom values ...
  0 settings made for charge
    set type 198 charge -0.12  # "Imide CH3-CONHCO-"
Setting atom values ...
  0 settings made for charge
    set type 199 charge -0.06  # "Imide -CH2-CONHCO-"
Setting atom values ...
  0 settings made for charge
    set type 200 charge 0.0  # "Imide >CH-CONHCO-"
Setting atom values ...
  0 settings made for charge
    set type 201 charge 0.06  # "Imide C-CONHCO-"
Setting atom values ...
  0 settings made for charge
    set type 202 charge 0.035  # "Benzonitrile C-CN"
Setting atom values ...
  0 settings made for charge
    set type 203 charge 0.395  # "Benzonitrile -CN"
Setting atom values ...
  0 settings made for charge
    set type 204 charge -0.43  # "Benzonitrile -CN"
Setting atom values ...
  0 settings made for charge
    set type 205 charge 0.18  # "Chlorobenzene C-Cl"
Setting atom values ...
  0 settings made for charge
    set type 206 charge -0.18  # "Chlorobenzene C-Cl"
Setting atom values ...
  0 settings made for charge
    set type 207 charge -0.385  # "N-Phenylacetamide N"
Setting atom values ...
  0 settings made for charge
    set type 208 charge 0.085  # "N-Phenylacetamide N-CA"
Setting atom values ...
  0 settings made for charge
    set type 209 charge 0.52  # "Carboxylic Acid -COOH"
Setting atom values ...
  0 settings made for charge
    set type 210 charge -0.44  # "Carboxylic Acid C=O"
Setting atom values ...
  0 settings made for charge
    set type 211 charge -0.53  # "Carboxylic Acid -OH"
Setting atom values ...
  0 settings made for charge
    set type 212 charge 0.45  # "Carboxylic Acid -COOH"
Setting atom values ...
  0 settings made for charge
    set type 213 charge 0.7  # "Carboxylate COO-"
Setting atom values ...
  0 settings made for charge
    set type 214 charge -0.8  # "Carboxylate COO-"
Setting atom values ...
  0 settings made for charge
    set type 215 charge -0.28  # "Carboxylate CH3-COO-"
Setting atom values ...
  0 settings made for charge
    set type 216 charge -0.22  # "Carboxylate RCH2-COO-"
Setting atom values ...
  0 settings made for charge
    set type 217 charge -0.16  # "Carboxylate R2CH-COO-"
Setting atom values ...
  0 settings made for charge
    set type 218 charge -0.1  # "Carboxylate R3C-COO-"
Setting atom values ...
  0 settings made for charge
    set type 219 charge 0.45  # "Aldehyde/Acyl Halide C=O"
Setting atom values ...
  0 settings made for charge
    set type 220 charge -0.45  # "Aldehyde/Acyl Halide C=O"
Setting atom values ...
  0 settings made for charge
    set type 221 charge 0.0  # "Aldehyde/Formamide H-C=O"
Setting atom values ...
  0 settings made for charge
    set type 222 charge 0.47  # "Ketone C=O"
Setting atom values ...
  0 settings made for charge
    set type 223 charge -0.47  # "Ketone C=O"
Setting atom values ...
  0 settings made for charge
    set type 224 charge 0.06  # "Acyl H-C-COX"
Setting atom values ...
  0 settings made for charge
    set type 225 charge 0.04  # "C-Terminal ALA CA"
Setting atom values ...
  0 settings made for charge
    set type 226 charge -0.02  # "C-Terminal GLY CA"
Setting atom values ...
  0 settings made for charge
    set type 227 charge 0.1  # "C-Terminal AIB CA"
Setting atom values ...
  0 settings made for charge
    set type 228 charge -0.09  # "C-Terminal PRO CA"
Setting atom values ...
  0 settings made for charge
    set type 229 charge -0.4  # "Ammonium NH4+"
Setting atom values ...
  0 settings made for charge
    set type 230 charge -0.3  # "Ammonium RNH3+"
Setting atom values ...
  0 settings made for charge
    set type 231 charge 0.0  # "Ammonium R4N+"
Setting atom values ...
  0 settings made for charge
    set type 232 charge 0.35  # "Ammonium NH4+"
Setting atom values ...
  0 settings made for charge
    set type 233 charge 0.33  # "Ammonium RNH3+"
Setting atom values ...
  0 settings made for charge
    set type 234 charge 0.13  # "Ammonium CH3-NH3+"
Setting atom values ...
  0 settings made for charge
    set type 235 charge 0.19  # "CH3NH3+/N-Term GLY CA"
Setting atom values ...
  0 settings made for charge
    set type 236 charge 0.25  # "RCH2NH3+/N-Term ALA CA"
Setting atom values ...
  0 settings made for charge
    set type 237 charge 0.31  # "R3C-NH3+/N-Term AIB CA"
Setting atom values ...
  0 settings made for charge
    set type 238 charge 0.23  # "N-Terminal PRO CA"
Setting atom values ...
  0 settings made for charge
    set type 239 charge 0.17  # "N-Terminal PRO CD"
Setting atom values ...
  0 settings made for charge
    set type 240 charge 0.11  # "Ammonium CH3-NH2R+"
Setting atom values ...
  0 settings made for charge
    set type 241 charge 0.09  # "GLY Zwitterion CA"
Setting atom values ...
  0 settings made for charge
    set type 242 charge 0.15  # "ALA Zwitterion CA"
Setting atom values ...
  0 settings made for charge
    set type 243 charge -0.8  # "Guanidinium -NH2"
Setting atom values ...
  0 settings made for charge
    set type 244 charge 0.46  # "Guanidinium -NH2"
Setting atom values ...
  0 settings made for charge
    set type 245 charge 0.64  # "Guanidinium C+"
Setting atom values ...
  0 settings made for charge
    set type 246 charge -0.7  # "Guanidinium -NHR"
Setting atom values ...
  0 settings made for charge
    set type 247 charge 0.44  # "Guanidinium -NHR"
Setting atom values ...
  0 settings made for charge
    set type 248 charge 0.2  # "Me Guanidinium CH3-"
Setting atom values ...
  0 settings made for charge
    set type 249 charge -0.11  # "Et Guanidinium CH3-"
Setting atom values ...
  0 settings made for charge
    set type 250 charge 0.19  # "Et Guan -CH2- & ARG CD"
Setting atom values ...
  0 settings made for charge
    set type 251 charge -0.05  # "Pr Guan -CH2- & ARG CG"
Setting atom values ...
  0 settings made for charge
    set type 252 charge -0.2  # "Ammonium R2NH2+"
Setting atom values ...
  0 settings made for charge
    set type 253 charge 0.31  # "Ammonium R2NH2+"
Setting atom values ...
  0 settings made for charge
    set type 254 charge -0.46  # "Diaminopyridine N1"
Setting atom values ...
  0 settings made for charge
    set type 255 charge 0.36  # "Diaminopyridine C2"
Setting atom values ...
  0 settings made for charge
    set type 256 charge -0.85  # "Diaminopyridine -NH2"
Setting atom values ...
  0 settings made for charge
    set type 257 charge 0.37  # "Diaminopyridine -NH2"
Setting atom values ...
  0 settings made for charge
    set type 258 charge -0.15  # "Diaminopyridine C3"
Setting atom values ...
  0 settings made for charge
    set type 259 charge 0.1  # "Diaminopyridine H3"
Setting atom values ...
  0 settings made for charge
    set type 260 charge -0.04  # "Diaminopyridine C4"
Setting atom values ...
  0 settings made for charge
    set type 261 charge 0.1  # "Diaminopyridine H4"
Setting atom values ...
  0 settings made for charge
    set type 262 charge -0.6  # "Uracil & Thymine N1"
Setting atom values ...
  0 settings made for charge
    set type 263 charge 0.5  # "Uracil & Thymine C2"
Setting atom values ...
  0 settings made for charge
    set type 264 charge -0.51  # "Uracil & Thymine N3"
Setting atom values ...
  0 settings made for charge
    set type 265 charge 0.45  # "Uracil & Thymine C4"
Setting atom values ...
  0 settings made for charge
    set type 266 charge -0.07  # "Uracil & Thymine C5"
Setting atom values ...
  0 settings made for charge
    set type 267 charge 0.08  # "Uracil & Thymine C6"
Setting atom values ...
  0 settings made for charge
    set type 268 charge 0.41  # "Uracil & Thymine HN1"
Setting atom values ...
  0 settings made for charge
    set type 269 charge -0.4  # "Uracil & Thymine O2"
Setting atom values ...
  0 settings made for charge
    set type 270 charge 0.36  # "Uracil & Thymine HN3"
Setting atom values ...
  0 settings made for charge
    set type 271 charge -0.42  # "Uracil & Thymine O4"
Setting atom values ...
  0 settings made for charge
    set type 272 charge 0.1  # "Uracil & Thymine HC5"
Setting atom values ...
  0 settings made for charge
    set type 273 charge 0.1  # "Uracil & Thymine HC6"
Setting atom values ...
  0 settings made for charge
    set type 274 charge -0.14  # "Thymine CH3-"
Setting atom values ...
  0 settings made for charge
    set type 275 charge 0.08  # "Thymine CH3-"
Setting atom values ...
  0 settings made for charge
    set type 276 charge -0.56  # "Cytosine N1"
Setting atom values ...
  0 settings made for charge
    set type 277 charge 0.55  # "Cytosine C2"
Setting atom values ...
  0 settings made for charge
    set type 278 charge -0.54  # "Cytosine N3"
Setting atom values ...
  0 settings made for charge
    set type 279 charge 0.46  # "Cytosine C4"
Setting atom values ...
  0 settings made for charge
    set type 280 charge -0.06  # "Cytosine C5"
Setting atom values ...
  0 settings made for charge
    set type 281 charge 0.1  # "Cytosine C6"
Setting atom values ...
  0 settings made for charge
    set type 282 charge 0.38  # "Cytosine HN1"
Setting atom values ...
  0 settings made for charge
    set type 283 charge -0.48  # "Cytosine O2"
Setting atom values ...
  0 settings made for charge
    set type 284 charge -0.79  # "Cytosine NH2-"
Setting atom values ...
  0 settings made for charge
    set type 285 charge 0.385  # "Cytosine NH2- (N3)"
Setting atom values ...
  0 settings made for charge
    set type 286 charge 0.355  # "Cytosine NH2- (C5)"
Setting atom values ...
  0 settings made for charge
    set type 287 charge 0.1  # "Cytosine HC5"
Setting atom values ...
  0 settings made for charge
    set type 288 charge 0.1  # "Cytosine HC6"
Setting atom values ...
  0 settings made for charge
    set type 289 charge -0.53  # "Adenine N1"
Setting atom values ...
  0 settings made for charge
    set type 290 charge 0.22  # "Adenine C2"
Setting atom values ...
  0 settings made for charge
    set type 291 charge -0.55  # "Adenine N3"
Setting atom values ...
  0 settings made for charge
    set type 292 charge 0.38  # "Adenine C4"
Setting atom values ...
  0 settings made for charge
    set type 293 charge 0.15  # "Adenine C5"
Setting atom values ...
  0 settings made for charge
    set type 294 charge 0.44  # "Adenine C6"
Setting atom values ...
  0 settings made for charge
    set type 295 charge -0.49  # "Adenine & Guanine N7"
Setting atom values ...
  0 settings made for charge
    set type 296 charge 0.2  # "Adenine & Guanine C8"
Setting atom values ...
  0 settings made for charge
    set type 297 charge -0.5  # "Adenine & Guanine N9"
Setting atom values ...
  0 settings made for charge
    set type 298 charge 0.2  # "Adenine HC2"
Setting atom values ...
  0 settings made for charge
    set type 299 charge -0.81  # "Adenine NH2-"
Setting atom values ...
  0 settings made for charge
    set type 300 charge 0.385  # "Adenine NH2- (N1)"
Setting atom values ...
  0 settings made for charge
    set type 301 charge 0.355  # "Adenine NH2- (C5)"
Setting atom values ...
  0 settings made for charge
    set type 302 charge 0.2  # "Adenine & Guanine HC8"
Setting atom values ...
  0 settings made for charge
    set type 303 charge 0.35  # "Adenine & Guanine HN9"
Setting atom values ...
  0 settings made for charge
    set type 304 charge -0.56  # "Guanine N1"
Setting atom values ...
  0 settings made for charge
    set type 305 charge 0.46  # "Guanine C2"
Setting atom values ...
  0 settings made for charge
    set type 306 charge -0.51  # "Guanine N3"
Setting atom values ...
  0 settings made for charge
    set type 307 charge 0.34  # "Guanine C4"
Setting atom values ...
  0 settings made for charge
    set type 308 charge 0.12  # "Guanine C5"
Setting atom values ...
  0 settings made for charge
    set type 309 charge 0.52  # "Guanine C6"
Setting atom values ...
  0 settings made for charge
    set type 310 charge 0.38  # "Guanine HN1"
Setting atom values ...
  0 settings made for charge
    set type 311 charge -0.8  # "Guanine NH2-"
Setting atom values ...
  0 settings made for charge
    set type 312 charge 0.4  # "Guanine NH2-"
Setting atom values ...
  0 settings made for charge
    set type 313 charge -0.51  # "Guanine O6"
Setting atom values ...
  0 settings made for charge
    set type 314 charge -0.01  # "9-Me A & 9-Me-G CH3-"
Setting atom values ...
  0 settings made for charge
    set type 315 charge 0.12  # "9-Me-A & 9-Me-G CH3-"
Setting atom values ...
  0 settings made for charge
    set type 316 charge -0.01  # "1-Me-U & 1-Me-T CH3-"
Setting atom values ...
  0 settings made for charge
    set type 317 charge 0.14  # "1-Me-U & 1-Me-T CH3-"
Setting atom values ...
  0 settings made for charge
    set type 318 charge -0.01  # "1-Me-Cytosine CH3-"
Setting atom values ...
  0 settings made for charge
    set type 319 charge 0.13  # "1-Me-Cytosine CH3-"
Setting atom values ...
  0 settings made for charge
    set type 320 charge -0.64  # "CytosineH+ N1"
Setting atom values ...
  0 settings made for charge
    set type 321 charge 0.65  # "CytosineH+ C2"
Setting atom values ...
  0 settings made for charge
    set type 322 charge -0.74  # "CytosineH+ N3"
Setting atom values ...
  0 settings made for charge
    set type 323 charge 0.66  # "CytosineH+ C4"
Setting atom values ...
  0 settings made for charge
    set type 324 charge -0.06  # "CytosineH+ C5"
Setting atom values ...
  0 settings made for charge
    set type 325 charge 0.1  # "CytosineH+ C6"
Setting atom values ...
  0 settings made for charge
    set type 326 charge 0.49  # "CytosineH+ HN1"
Setting atom values ...
  0 settings made for charge
    set type 327 charge -0.3  # "CytosineH+ O2"
Setting atom values ...
  0 settings made for charge
    set type 328 charge 0.48  # "CytosineH+ HN3"
Setting atom values ...
  0 settings made for charge
    set type 329 charge -0.81  # "CytosineH+ NH2-"
Setting atom values ...
  0 settings made for charge
    set type 330 charge 0.46  # "CytosineH+ NH2- (N3)"
Setting atom values ...
  0 settings made for charge
    set type 331 charge 0.43  # "CytosineH+ NH2- (C5)"
Setting atom values ...
  0 settings made for charge
    set type 332 charge 0.14  # "CytosineH+ HC5"
Setting atom values ...
  0 settings made for charge
    set type 333 charge 0.14  # "CytosineH+ HC6"
Setting atom values ...
  0 settings made for charge
    set type 334 charge 0.01  # "1-Me-CytosineH+ CH3-"
Setting atom values ...
  0 settings made for charge
    set type 335 charge 0.16  # "1-Me-CytosineH+ CH3-"
Setting atom values ...
  0 settings made for charge
    set type 336 charge 0.78  # "DiMePhosphate P (UA)"
Setting atom values ...
  0 settings made for charge
    set type 337 charge -0.66  # "DiMePhosphate O=P-O (UA)"
Setting atom values ...
  0 settings made for charge
    set type 338 charge -0.43  # "DiMePhosphate CH3-O (UA)"
Setting atom values ...
  0 settings made for charge
    set type 339 charge 0.2  # "DiMePhosphate CH3-O (UA)"
Setting atom values ...
  0 settings made for charge
    set type 340 charge 0.18  # "Trifluorothymine CF3-"
Setting atom values ...
  0 settings made for charge
    set type 341 charge -0.06  # "Chloroalkene Cl2-C="
Setting atom values ...
  0 settings made for charge
    set type 342 charge 0.12  # "Chloroalkene Cl2-C="
Setting atom values ...
  0 settings made for charge
    set type 343 charge -1.0  # "Fluoride Ion F-"
Setting atom values ...
  0 settings made for charge
    set type 344 charge -1.0  # "Chloride Ion Cl-"
Setting atom values ...
  0 settings made for charge
    set type 345 charge -1.0  # "Bromide Ion Br-"
Setting atom values ...
  0 settings made for charge
    set type 346 charge -1.0  # "Iodide Ion I-"
Setting atom values ...
  0 settings made for charge
    set type 347 charge 1.0  # "Ammonium Ion NH4+ (UA)"
Setting atom values ...
  0 settings made for charge
    set type 348 charge 1.0  # "Lithium Ion Li+"
Setting atom values ...
  0 settings made for charge
    set type 349 charge 1.0  # "Sodium Ion Na+"
Setting atom values ...
  0 settings made for charge
    set type 350 charge 1.0  # "Potassium Ion K+"
Setting atom values ...
  0 settings made for charge
    set type 351 charge 1.0  # "Rubidium Ion Rb+"
Setting atom values ...
  0 settings made for charge
    set type 352 charge 1.0  # "Cesium Ion Cs+"
Setting atom values ...
  0 settings made for charge
    set type 353 charge 2.0  # "Magnesium Ion Mg+2"
Setting atom values ...
  0 settings made for charge
    set type 354 charge 2.0  # "Calcium Ion Ca+2"
Setting atom values ...
  0 settings made for charge
    set type 355 charge 2.0  # "Strontium Ion Sr+2"
Setting atom values ...
  0 settings made for charge
    set type 356 charge 2.0  # "Barium Ion Ba+2"
Setting atom values ...
  0 settings made for charge
    set type 357 charge -0.4  # "Methyl Thiolate CH3S-"
Setting atom values ...
  0 settings made for charge
    set type 358 charge 0.1  # "Methyl Thiolate CH3S-"
Setting atom values ...
  0 settings made for charge
    set type 359 charge -0.9  # "Methyl Thiolate CH3S-"
Setting atom values ...
  0 settings made for charge
    set type 360 charge -0.2  # "Methoxide CH3O-"
Setting atom values ...
  0 settings made for charge
    set type 361 charge 0.06  # "Methoxide CH3O-"
Setting atom values ...
  0 settings made for charge
    set type 362 charge -0.98  # "Methoxide CH3O-"
Setting atom values ...
  0 settings made for charge
    set type 363 charge -1.07  # "Nitrile Anion CNCH2-"
Setting atom values ...
  0 settings made for charge
    set type 364 charge 0.19  # "Nitrile Anion CNCH2-"
Setting atom values ...
  0 settings made for charge
    set type 365 charge 0.51  # "Nitrile Anion CNCH2-"
Setting atom values ...
  0 settings made for charge
    set type 366 charge -0.82  # "Nitrile Anion CNCH2-"
Setting atom values ...
  0 settings made for charge
    set type 367 charge -0.3  # "Me Amine Anion CH3NH-"
Setting atom values ...
  0 settings made for charge
    set type 368 charge 0.07  # "Me Amine Anion CH3NH-"
Setting atom values ...
  0 settings made for charge
    set type 369 charge -1.31  # "Me Amine Anion CH3NH-"
Setting atom values ...
  0 settings made for charge
    set type 370 charge 0.4  # "Methyl Amine Anion"
Setting atom values ...
  0 settings made for charge
    set type 371 charge -0.4  # "Ethyl Anion CH3-CH2-"
Setting atom values ...
  0 settings made for charge
    set type 372 charge 0.08  # "Ethyl Anion CH3-CH2-"
Setting atom values ...
  0 settings made for charge
    set type 373 charge 0.0  # "Ethyl Anion CH3-CH2-"
Setting atom values ...
  0 settings made for charge
    set type 374 charge 0.07  # "Ethyl Anion CH3-CH2-"
Setting atom values ...
  0 settings made for charge
    set type 375 charge -0.98  # "Ethyl Anion CH3-CH2-"
Setting atom values ...
  0 settings made for charge
    set type 376 charge -1.3  # "Hydroxide Ion OH-"
Setting atom values ...
  0 settings made for charge
    set type 377 charge 0.3  # "Hydroxide Ion OH-"
Setting atom values ...
  0 settings made for charge
    set type 378 charge 2.5  # "Uranyl Ion UO2+"
Setting atom values ...
  0 settings made for charge
    set type 379 charge -0.25  # "Uranyl Ion UO2+"
Setting atom values ...
  0 settings made for charge
    set type 380 charge -0.865  # "GTP O-(POn)2"
Setting atom values ...
  0 settings made for charge
    set type 381 charge 1.62  # "DiMe Phosphate P"
Setting atom values ...
  0 settings made for charge
    set type 382 charge -0.92  # "DiMe Phosphate O=P-O"
Setting atom values ...
  0 settings made for charge
    set type 383 charge -0.6  # "DiMe Phosphate CH3-O"
Setting atom values ...
  0 settings made for charge
    set type 384 charge 0.3  # "DiMe Phosphate CH3-O"
Setting atom values ...
  0 settings made for charge
    set type 385 charge -0.03  # "DiMe Phosphate CH3-O"
Setting atom values ...
  0 settings made for charge
    set type 386 charge 1.92  # "Me Phosphate P"
Setting atom values ...
  0 settings made for charge
    set type 387 charge -1.12  # "Me Phosphate O=PO2"
Setting atom values ...
  0 settings made for charge
    set type 388 charge -0.7  # "Me Phosphate CH3-O"
Setting atom values ...
  0 settings made for charge
    set type 389 charge 0.44  # "Me Phosphate CH3-O"
Setting atom values ...
  0 settings made for charge
    set type 390 charge -0.1  # "Me Phosphate CH3-O"
Setting atom values ...
  0 settings made for charge
    set type 391 charge 1.62  # "Me MePhosphonate P"
Setting atom values ...
  0 settings made for charge
    set type 392 charge -0.97  # "Me MePhosphonate O=P-O"
Setting atom values ...
  0 settings made for charge
    set type 393 charge -0.63  # "Me MePhosphonate CH3-O"
Setting atom values ...
  0 settings made for charge
    set type 394 charge 0.28  # "Me MePhosphonate CH3-O"
Setting atom values ...
  0 settings made for charge
    set type 395 charge -0.02  # "Me MePhosphonate CH3-O"
Setting atom values ...
  0 settings made for charge
    set type 396 charge -0.51  # "Me MePhosphonate CH3-P"
Setting atom values ...
  0 settings made for charge
    set type 397 charge 0.08  # "Me MePhosphonate CH3-P"
Setting atom values ...
  0 settings made for charge
    set type 398 charge -0.14  # "Bz MePhosphonate Cipso"
Setting atom values ...
  0 settings made for charge
    set type 399 charge 0.32  # "Bz MePhosphonate CH3-O"
Setting atom values ...
  0 settings made for charge
    set type 400 charge 0.02  # "Bz MePhosphonate CH3-O"
Setting atom values ...
  0 settings made for charge
    set type 401 charge -0.04  # "Me BzPhosphonate Cipso"
Setting atom values ...
  0 settings made for charge
    set type 402 charge -0.47  # "Me BzPhosphonate CH3-P"
Setting atom values ...
  0 settings made for charge
    set type 403 charge 0.12  # "Me BzPhosphonate CH3-P"
Setting atom values ...
  0 settings made for charge
    set type 404 charge 0.14  # "Ph Phosphate Cipso"
Setting atom values ...
  0 settings made for charge
    set type 405 charge 0.24  # "Barbiturate C6(R2)"
Setting atom values ...
  0 settings made for charge
    set type 406 charge 0.51  # "Ester -COOR"
Setting atom values ...
  0 settings made for charge
    set type 407 charge -0.43  # "Ester C=O"
Setting atom values ...
  0 settings made for charge
    set type 408 charge -0.33  # "Ester CO-O-R"
Setting atom values ...
  0 settings made for charge
    set type 409 charge 0.16  # "Methyl Ester -OCH3"
Setting atom values ...
  0 settings made for charge
    set type 410 charge 0.03  # "Ester -OCH<"
Setting atom values ...
  0 settings made for charge
    set type 411 charge 0.635  # "Benzoic Acid -COOH"
Setting atom values ...
  0 settings made for charge
    set type 412 charge 0.625  # "Aryl Ester -COOR"
Setting atom values ...
  0 settings made for charge
    set type 413 charge 0.135  # "Phenyl Ester Cipso"
Setting atom values ...
  0 settings made for charge
    set type 414 charge -0.215  # "Phenyl Ester -OPh"
Setting atom values ...
  0 settings made for charge
    set type 415 charge 1.48  # "Sulfonamide -SO2N<"
Setting atom values ...
  0 settings made for charge
    set type 416 charge -0.68  # "Sulfonamide -SO2N<"
Setting atom values ...
  0 settings made for charge
    set type 417 charge -0.54  # "Sulfonamide CH3-S"
Setting atom values ...
  0 settings made for charge
    set type 418 charge 0.18  # "Sulfonamide CH3-S"
Setting atom values ...
  0 settings made for charge
    set type 419 charge -1.0  # "Sulfonamide -SO2NH2"
Setting atom values ...
  0 settings made for charge
    set type 420 charge 0.44  # "Sulfonamide -SO2NH2"
Setting atom values ...
  0 settings made for charge
    set type 421 charge -0.8  # "Sulfonamide -SO2NHR"
Setting atom values ...
  0 settings made for charge
    set type 422 charge 0.41  # "Sulfonamide -SO2NHR"
Setting atom values ...
  0 settings made for charge
    set type 423 charge 0.18  # "N-Me Sulfonamide CH3-"
Setting atom values ...
  0 settings made for charge
    set type 424 charge 0.03  # "N-Me Sulfonamide CH3-"
Setting atom values ...
  0 settings made for charge
    set type 425 charge 0.39  # "Sulfonamide N-CH2-R"
Setting atom values ...
  0 settings made for charge
    set type 426 charge -0.06  # "Sulfonamide N-CH2-R"
Setting atom values ...
  0 settings made for charge
    set type 427 charge -0.18  # "N-Et Sulfonamide CH3-"
Setting atom values ...
  0 settings made for charge
    set type 428 charge 0.06  # "N-Et Sulfonamide CH3-"
Setting atom values ...
  0 settings made for charge
    set type 429 charge 0.0  # "Aryl Sulfonamide C-SO2N"
Setting atom values ...
  0 settings made for charge
    set type 430 charge 0.03  # "Aryl Sulfoxide C-S=O"
Setting atom values ...
  0 settings made for charge
    set type 431 charge 0.19  # "Et Ester -OCH2R"
Setting atom values ...
  0 settings made for charge
    set type 432 charge 0.22  # "i-Pr Ester -OCHR2"
Setting atom values ...
  0 settings made for charge
    set type 433 charge 0.25  # "t-Bu Ester -OCR3"
Setting atom values ...
  0 settings made for charge
    set type 434 charge 1.374  # "Sulfone R-SO2-R"
Setting atom values ...
  0 settings made for charge
    set type 435 charge -0.687  # "Sulfone R-SO2-R"
Setting atom values ...
  0 settings made for charge
    set type 436 charge 0.245  # "Alkyl Aryl Sulfoxide"
Setting atom values ...
  0 settings made for charge
    set type 437 charge 0.13  # "Dialkyl Sulfoxide"
Setting atom values ...
  0 settings made for charge
    set type 438 charge -0.42  # "Sulfoxide R-SO-R"
Setting atom values ...
  0 settings made for charge
    set type 439 charge -0.035  # "Sulfoxide CH3-SO-R"
Setting atom values ...
  0 settings made for charge
    set type 440 charge 0.025  # "Sulfoxide -CH2-SO-R"
Setting atom values ...
  0 settings made for charge
    set type 441 charge 0.075  # "TRP CG"
Setting atom values ...
  0 settings made for charge
    set type 442 charge -0.055  # "TRP CD"
Setting atom values ...
  0 settings made for charge
    set type 443 charge 0.13  # "TRP CE"
Setting atom values ...
  0 settings made for charge
    set type 444 charge -0.57  # "TRP NE, HID ND & HIE NE"
Setting atom values ...
  0 settings made for charge
    set type 445 charge 0.42  # "TRP HNE & HID/HIE HN"
Setting atom values ...
  0 settings made for charge
    set type 446 charge -0.005  # "HIS CB"
Setting atom values ...
  0 settings made for charge
    set type 447 charge 0.295  # "HID & HIE CE1"
Setting atom values ...
  0 settings made for charge
    set type 448 charge -0.015  # "HID CD2 & HIE CG"
Setting atom values ...
  0 settings made for charge
    set type 449 charge 0.015  # "HID CG & HIE CD2"
Setting atom values ...
  0 settings made for charge
    set type 450 charge 0.385  # "HIP CE1"
Setting atom values ...
  0 settings made for charge
    set type 451 charge 0.215  # "HIP CG & CD2"
Setting atom values ...
  0 settings made for charge
    set type 452 charge -0.49  # "HID NE & HIE ND"
Setting atom values ...
  0 settings made for charge
    set type 453 charge -0.54  # "HIP ND & NE"
Setting atom values ...
  0 settings made for charge
    set type 454 charge 0.46  # "HIP HND & HNE"
Setting atom values ...
  0 settings made for charge
    set type 455 charge -0.115  # "TRP CD1"
Setting atom values ...
  0 settings made for charge
    set type 456 charge 0.055  # "i-Pr Benzene -CHMe2"
Setting atom values ...
  0 settings made for charge
    set type 457 charge 0.115  # "t-Bu Benzene -CMe3"
Setting atom values ...
  0 settings made for charge
    set type 458 charge -0.03  # "Vinyl Ether =CH-OR"
Setting atom values ...
  0 settings made for charge
    set type 459 charge 0.085  # "Vinyl Ether =CR-OR"
Setting atom values ...
  0 settings made for charge
    set type 460 charge 0.0  # "Biphenyl C1"
Setting atom values ...
  0 settings made for charge
    set type 461 charge -0.678  # "Pyridine N"
Setting atom values ...
  0 settings made for charge
    set type 462 charge 0.473  # "Pyridine C1"
Setting atom values ...
  0 settings made for charge
    set type 463 charge -0.447  # "Pyridine C2"
Setting atom values ...
  0 settings made for charge
    set type 464 charge 0.227  # "Pyridine C3"
Setting atom values ...
  0 settings made for charge
    set type 465 charge 0.012  # "Pyridine H1"
Setting atom values ...
  0 settings made for charge
    set type 466 charge 0.155  # "Pyridine H2"
Setting atom values ...
  0 settings made for charge
    set type 467 charge 0.065  # "Pyridine H3"
Setting atom values ...
  0 settings made for charge
    set type 468 charge -0.468  # "Pyrazine N"
Setting atom values ...
  0 settings made for charge
    set type 469 charge 0.192  # "Pyrazine CH"
Setting atom values ...
  0 settings made for charge
    set type 470 charge 0.042  # "Pyrazine CH"
Setting atom values ...
  0 settings made for charge
    set type 471 charge -0.839  # "Pyrimidine N"
Setting atom values ...
  0 settings made for charge
    set type 472 charge 0.874  # "Pyrimidine C2"
Setting atom values ...
  0 settings made for charge
    set type 473 charge 0.653  # "Pyrimidine C4"
Setting atom values ...
  0 settings made for charge
    set type 474 charge -0.689  # "Pyrimidine C5"
Setting atom values ...
  0 settings made for charge
    set type 475 charge -0.032  # "Pyrimidine HC2"
Setting atom values ...
  0 settings made for charge
    set type 476 charge 0.011  # "Pyrimidine HC4"
Setting atom values ...
  0 settings made for charge
    set type 477 charge 0.197  # "Pyrimidine HC5"
Setting atom values ...
  0 settings made for charge
    set type 478 charge -0.331  # "Pyridazine N"
Setting atom values ...
  0 settings made for charge
    set type 479 charge 0.378  # "Pyridazine C3"
Setting atom values ...
  0 settings made for charge
    set type 480 charge -0.16  # "Pyridazine C4"
Setting atom values ...
  0 settings made for charge
    set type 481 charge -0.009  # "Pyridazine HC3"
Setting atom values ...
  0 settings made for charge
    set type 482 charge 0.122  # "Pyridazine HC4"
Setting atom values ...
  0 settings made for charge
    set type 483 charge -0.239  # "Pyrrole N"
Setting atom values ...
  0 settings made for charge
    set type 484 charge -0.163  # "Pyrrole C2"
Setting atom values ...
  0 settings made for charge
    set type 485 charge -0.149  # "Pyrrole C3"
Setting atom values ...
  0 settings made for charge
    set type 486 charge 0.317  # "Pyrrole HN"
Setting atom values ...
  0 settings made for charge
    set type 487 charge 0.155  # "Pyrrole HC2"
Setting atom values ...
  0 settings made for charge
    set type 488 charge 0.118  # "Pyrrole HC3"
Setting atom values ...
  0 settings made for charge
    set type 489 charge -0.059  # "Pyrazole N1"
Setting atom values ...
  0 settings made for charge
    set type 490 charge -0.491  # "Pyrazole N2"
Setting atom values ...
  0 settings made for charge
    set type 491 charge 0.246  # "Pyrazole C3"
Setting atom values ...
  0 settings made for charge
    set type 492 charge -0.32  # "Pyrazole C4"
Setting atom values ...
  0 settings made for charge
    set type 493 charge -0.034  # "Pyrazole C5"
Setting atom values ...
  0 settings made for charge
    set type 494 charge 0.301  # "Pyrazole HN1"
Setting atom values ...
  0 settings made for charge
    set type 495 charge 0.072  # "Pyrazole HC3"
Setting atom values ...
  0 settings made for charge
    set type 496 charge 0.15  # "Pyrazole HC4"
Setting atom values ...
  0 settings made for charge
    set type 497 charge 0.135  # "Pyrazole HC5"
Setting atom values ...
  0 settings made for charge
    set type 498 charge -0.257  # "Imidazole N1"
Setting atom values ...
  0 settings made for charge
    set type 499 charge 0.275  # "Imidazole C2"
Setting atom values ...
  0 settings made for charge
    set type 500 charge -0.563  # "Imidazole N3"
Setting atom values ...
  0 settings made for charge
    set type 501 charge 0.185  # "Imidazole C4"
Setting atom values ...
  0 settings made for charge
    set type 502 charge -0.286  # "Imidazole C5"
Setting atom values ...
  0 settings made for charge
    set type 503 charge 0.306  # "Imidazole HN1"
Setting atom values ...
  0 settings made for charge
    set type 504 charge 0.078  # "Imidazole HC2"
Setting atom values ...
  0 settings made for charge
    set type 505 charge 0.075  # "Imidazole HC4"
Setting atom values ...
  0 settings made for charge
    set type 506 charge 0.187  # "Imidazole HC5"
Setting atom values ...
  0 settings made for charge
    set type 507 charge -0.19  # "Furan O"
Setting atom values ...
  0 settings made for charge
    set type 508 charge -0.019  # "Furan C2"
Setting atom values ...
  0 settings made for charge
    set type 509 charge -0.154  # "Furan C3"
Setting atom values ...
  0 settings made for charge
    set type 510 charge 0.142  # "Furan HC2"
Setting atom values ...
  0 settings made for charge
    set type 511 charge 0.126  # "Furan HC3"
Setting atom values ...
  0 settings made for charge
    set type 512 charge -0.257  # "Oxazole O"
Setting atom values ...
  0 settings made for charge
    set type 513 charge 0.511  # "Oxazole C2"
Setting atom values ...
  0 settings made for charge
    set type 514 charge -0.59  # "Oxazole N"
Setting atom values ...
  0 settings made for charge
    set type 515 charge 0.169  # "Oxazole C4"
Setting atom values ...
  0 settings made for charge
    set type 516 charge -0.148  # "Oxazole C5"
Setting atom values ...
  0 settings made for charge
    set type 517 charge 0.043  # "Oxazole HC2"
Setting atom values ...
  0 settings made for charge
    set type 518 charge 0.091  # "Oxazole HC4"
Setting atom values ...
  0 settings made for charge
    set type 519 charge 0.181  # "Oxazole HC5"
Setting atom values ...
  0 settings made for charge
    set type 520 charge -0.122  # "Isoxazole O"
Setting atom values ...
  0 settings made for charge
    set type 521 charge -0.413  # "Isoxazole N"
Setting atom values ...
  0 settings made for charge
    set type 522 charge 0.405  # "Isoxazole C3"
Setting atom values ...
  0 settings made for charge
    set type 523 charge -0.455  # "Isoxazole C4"
Setting atom values ...
  0 settings made for charge
    set type 524 charge 0.25  # "Isoxazole C5"
Setting atom values ...
  0 settings made for charge
    set type 525 charge 0.053  # "Isoxazole HC3"
Setting atom values ...
  0 settings made for charge
    set type 526 charge 0.184  # "Isoxazole HC4"
Setting atom values ...
  0 settings made for charge
    set type 527 charge 0.098  # "Isoxazole HC5"
Setting atom values ...
  0 settings made for charge
    set type 528 charge -0.5  # "Indole N1"
Setting atom values ...
  0 settings made for charge
    set type 529 charge 0.001  # "Indole C2"
Setting atom values ...
  0 settings made for charge
    set type 530 charge -0.39  # "Indole C3"
Setting atom values ...
  0 settings made for charge
    set type 531 charge -0.27  # "Indole C4"
Setting atom values ...
  0 settings made for charge
    set type 532 charge -0.127  # "Indole C5"
Setting atom values ...
  0 settings made for charge
    set type 533 charge -0.108  # "Indole C6"
Setting atom values ...
  0 settings made for charge
    set type 534 charge -0.258  # "Indole C7"
Setting atom values ...
  0 settings made for charge
    set type 535 charge 0.22  # "Indole C8"
Setting atom values ...
  0 settings made for charge
    set type 536 charge 0.225  # "Indole C9"
Setting atom values ...
  0 settings made for charge
    set type 537 charge 0.376  # "Indole HN1"
Setting atom values ...
  0 settings made for charge
    set type 538 charge 0.147  # "Indole HC2"
Setting atom values ...
  0 settings made for charge
    set type 539 charge 0.172  # "Indole HC3"
Setting atom values ...
  0 settings made for charge
    set type 540 charge 0.155  # "Indole HC4"
Setting atom values ...
  0 settings made for charge
    set type 541 charge 0.107  # "Indole HC5"
Setting atom values ...
  0 settings made for charge
    set type 542 charge 0.11  # "Indole HC6"
Setting atom values ...
  0 settings made for charge
    set type 543 charge 0.14  # "Indole HC7"
Setting atom values ...
  0 settings made for charge
    set type 544 charge -0.694  # "Quinoline N1"
Setting atom values ...
  0 settings made for charge
    set type 545 charge 0.425  # "Quinoline C2"
Setting atom values ...
  0 settings made for charge
    set type 546 charge -0.359  # "Quinoline C3"
Setting atom values ...
  0 settings made for charge
    set type 547 charge -0.008  # "Quinoline C4"
Setting atom values ...
  0 settings made for charge
    set type 548 charge -0.197  # "Quinoline C5"
Setting atom values ...
  0 settings made for charge
    set type 549 charge -0.112  # "Quinoline C6"
Setting atom values ...
  0 settings made for charge
    set type 550 charge -0.07  # "Quinoline C7"
Setting atom values ...
  0 settings made for charge
    set type 551 charge -0.307  # "Quinoline C8"
Setting atom values ...
  0 settings made for charge
    set type 552 charge 0.563  # "Quinoline C9"
Setting atom values ...
  0 settings made for charge
    set type 553 charge -0.051  # "Quinoline C10"
Setting atom values ...
  0 settings made for charge
    set type 554 charge 0.028  # "Quinoline HC2"
Setting atom values ...
  0 settings made for charge
    set type 555 charge 0.146  # "Quinoline HC3"
Setting atom values ...
  0 settings made for charge
    set type 556 charge 0.119  # "Quinoline HC4"
Setting atom values ...
  0 settings made for charge
    set type 557 charge 0.133  # "Quinoline HC5"
Setting atom values ...
  0 settings made for charge
    set type 558 charge 0.113  # "Quinoline HC6"
Setting atom values ...
  0 settings made for charge
    set type 559 charge 0.114  # "Quinoline HC7"
Setting atom values ...
  0 settings made for charge
    set type 560 charge 0.157  # "Quinoline HC8"
Setting atom values ...
  0 settings made for charge
    set type 561 charge -0.76  # "Purine N1"
Setting atom values ...
  0 settings made for charge
    set type 562 charge 0.679  # "Purine C2"
Setting atom values ...
  0 settings made for charge
    set type 563 charge -0.788  # "Purine N3"
Setting atom values ...
  0 settings made for charge
    set type 564 charge 0.736  # "Purine C4"
Setting atom values ...
  0 settings made for charge
    set type 565 charge 0.038  # "Purine C5"
Setting atom values ...
  0 settings made for charge
    set type 566 charge 0.343  # "Purine C6"
Setting atom values ...
  0 settings made for charge
    set type 567 charge -0.642  # "Purine N7"
Setting atom values ...
  0 settings made for charge
    set type 568 charge 0.452  # "Purine C8"
Setting atom values ...
  0 settings made for charge
    set type 569 charge -0.682  # "Purine N9"
Setting atom values ...
  0 settings made for charge
    set type 570 charge 0.024  # "Purine HC2"
Setting atom values ...
  0 settings made for charge
    set type 571 charge 0.101  # "Purine HC6"
Setting atom values ...
  0 settings made for charge
    set type 572 charge 0.086  # "Purine HC8"
Setting atom values ...
  0 settings made for charge
    set type 573 charge 0.413  # "Purine HN9"
Setting atom values ...
  0 settings made for charge
    set type 574 charge -0.03  # "Thiazole S"
Setting atom values ...
  0 settings made for charge
    set type 575 charge 0.242  # "Thiazole C2"
Setting atom values ...
  0 settings made for charge
    set type 576 charge -0.515  # "Thiazole N"
Setting atom values ...
  0 settings made for charge
    set type 577 charge 0.228  # "Thiazole C4"
Setting atom values ...
  0 settings made for charge
    set type 578 charge -0.299  # "Thiazole C5"
Setting atom values ...
  0 settings made for charge
    set type 579 charge 0.101  # "Thiazole HC2"
Setting atom values ...
  0 settings made for charge
    set type 580 charge 0.068  # "Thiazole HC4"
Setting atom values ...
  0 settings made for charge
    set type 581 charge 0.205  # "Thiazole HC5"
Setting atom values ...
  0 settings made for charge
    set type 582 charge -0.951  # "1,3,5-Triazine N"
Setting atom values ...
  0 settings made for charge
    set type 583 charge 0.965  # "1,3,5-Triazine CH"
Setting atom values ...
  0 settings made for charge
    set type 584 charge -0.014  # "1,3,5-Triazine CH"
Setting atom values ...
  0 settings made for charge
    set type 585 charge 0.13  # "Serotonin C5-OH"
Setting atom values ...
  0 settings made for charge
    set type 586 charge 0.052  # "Serotonin CH2 on C3"
Setting atom values ...
  0 settings made for charge
    set type 587 charge -0.599  # "1,10-Phenanthroline N"
Setting atom values ...
  0 settings made for charge
    set type 588 charge 0.392  # "1,10-Phenanthroline C2"
Setting atom values ...
  0 settings made for charge
    set type 589 charge -0.348  # "1,10-Phenanthroline C3"
Setting atom values ...
  0 settings made for charge
    set type 590 charge 0.02  # "1,10-Phenanthroline C4"
Setting atom values ...
  0 settings made for charge
    set type 591 charge -0.042  # "1,10-Phenanthroline C12"
Setting atom values ...
  0 settings made for charge
    set type 592 charge 0.347  # "1,10-Phenanthroline C11"
Setting atom values ...
  0 settings made for charge
    set type 593 charge -0.196  # "1,10-Phenanthroline C5"
Setting atom values ...
  0 settings made for charge
    set type 594 charge 0.032  # "1,10-Phenanthroline HC2"
Setting atom values ...
  0 settings made for charge
    set type 595 charge 0.146  # "1,10-Phenanthroline HC3"
Setting atom values ...
  0 settings made for charge
    set type 596 charge 0.108  # "1,10-Phenanthroline HC4"
Setting atom values ...
  0 settings made for charge
    set type 597 charge 0.14  # "1,10-Phenanthroline HC5"
Setting atom values ...
  0 settings made for charge
    set type 598 charge 0.122  # "1-Methylimidazole N1"
Setting atom values ...
  250 settings made for charge
    set type 599 charge 0.166  # "1-Methylimidazole C2"
Setting atom values ...
  125 settings made for charge
    set type 600 charge -0.58  # "1-Methylimidazole N3"
Setting atom values ...
  0 settings made for charge
    set type 601 charge 0.173  # "1-Methylimidazole C4"
Setting atom values ...
  0 settings made for charge
    set type 602 charge -0.395  # "1-Methylimidazole C5"
Setting atom values ...
  250 settings made for charge
    set type 603 charge -0.199  # "1-Methylimidazole CH3-"
Setting atom values ...
  250 settings made for charge
    set type 604 charge 0.118  # "1-Methylimidazole HC2"
Setting atom values ...
  125 settings made for charge
    set type 605 charge 0.093  # "1-Methylimidazole HC4"
Setting atom values ...
  125 settings made for charge
    set type 606 charge 0.208  # "1-Methylimidazole HC5"
Setting atom values ...
  125 settings made for charge
    set type 607 charge 0.098  # "1-Methylimidazole CH3-"
Setting atom values ...
  750 settings made for charge
    set type 608 charge -0.139  # "1-Et Imidazole RCH2-"
Setting atom values ...
  0 settings made for charge
    set type 609 charge -0.079  # "1-iPr Imidazole R2CH-"
Setting atom values ...
  0 settings made for charge
    set type 610 charge 0.099  # "1-MeO-Me-Imidazole CH2"
Setting atom values ...
  0 settings made for charge
    set type 611 charge -0.168  # "2-Me Pyridine CH3"
Setting atom values ...
  0 settings made for charge
    set type 612 charge -0.108  # "2-Et Pyridine CH2"
Setting atom values ...
  0 settings made for charge
    set type 613 charge -0.189  # "3-Me Pyridazine CH3"
Setting atom values ...
  0 settings made for charge
    set type 614 charge -0.129  # "3-Et Pyridazine CH2"
Setting atom values ...
  0 settings made for charge
    set type 615 charge -0.169  # "4-Me Pyrimidine CH3"
Setting atom values ...
  0 settings made for charge
    set type 616 charge -0.109  # "4-Et Pyrimidine CH2"
Setting atom values ...
  0 settings made for charge
    set type 617 charge -0.138  # "2-Me Pyrazine CH3"
Setting atom values ...
  0 settings made for charge
    set type 618 charge -0.078  # "2-Et Pyrazine CH2"
Setting atom values ...
  0 settings made for charge
    set type 619 charge -0.025  # "2-Me Pyrrole CH3"
Setting atom values ...
  0 settings made for charge
    set type 620 charge 0.035  # "2-Et Pyrrole CH2"
Setting atom values ...
  0 settings made for charge
    set type 621 charge -0.038  # "2-Me Furan CH3"
Setting atom values ...
  0 settings made for charge
    set type 622 charge 0.022  # "2-Et Furan CH2"
Setting atom values ...
  0 settings made for charge
    set type 623 charge -0.334  # "6-Mercaptopurine SH"
Setting atom values ...
  0 settings made for charge
    set type 624 charge 0.255  # "6-Mercaptopurine SH"
Setting atom values ...
  0 settings made for charge
    set type 625 charge 0.523  # "6-Mercaptopurine C6"
Setting atom values ...
  0 settings made for charge
    set type 626 charge 0.5  # "Beta-Lactam N-C=O"
Setting atom values ...
  0 settings made for charge
    set type 627 charge -0.14  # "Beta-Lactam N-C=O"
Setting atom values ...
  0 settings made for charge
    set type 628 charge 0.2275  # "Penicillin CH-N"
Setting atom values ...
  0 settings made for charge
    set type 629 charge 0.14  # "Penicillin CH-CO"
Setting atom values ...
  0 settings made for charge
    set type 630 charge -0.008  # "3-Me Indole CH3"
Setting atom values ...
  0 settings made for charge
    set type 631 charge 0.588  # "2-Phenyl Pyridine C2"
Setting atom values ...
  0 settings made for charge
    set type 632 charge -0.103  # "2-Phenyl Pyridine C2'"
Setting atom values ...
  0 settings made for charge
    set type 633 charge -0.332  # "2-Phenyl Pyridine C3"
Setting atom values ...
  0 settings made for charge
    set type 634 charge 0.04  # "2-Phenyl Pyridine C3'"
Setting atom values ...
  0 settings made for charge
    set type 635 charge 0.342  # "2-Phenyl Pyridine C4"
Setting atom values ...
  0 settings made for charge
    set type 636 charge -0.05  # "2-Phenyl Pyridine C4'"
Setting atom values ...
  0 settings made for charge
    set type 637 charge -0.205  # "Diphenyl Thioether S"
Setting atom values ...
  0 settings made for charge
    set type 638 charge 3.0  # "Actinium Ion Ac+3"
Setting atom values ...
  0 settings made for charge
    set type 639 charge 4.0  # "Thorium Ion Th+4"
Setting atom values ...
  0 settings made for charge
    set type 640 charge 3.0  # "Americium Ion Am+3"
Setting atom values ...
  0 settings made for charge
    set type 641 charge 0.619  # "t-Butyl Cation C+"
Setting atom values ...
  0 settings made for charge
    set type 642 charge -0.395  # "t-Butyl Cation CH3-"
Setting atom values ...
  0 settings made for charge
    set type 643 charge 0.174  # "t-Butyl Cation CH3-"
Setting atom values ...
  0 settings made for charge
    set type 644 charge 3.0  # "Lanthanum Ion La+3"
Setting atom values ...
  0 settings made for charge
    set type 645 charge 3.0  # "Neodymium Ion Nd+3"
Setting atom values ...
  0 settings made for charge
    set type 646 charge 3.0  # "Europium Ion Eu+3"
Setting atom values ...
  0 settings made for charge
    set type 647 charge 3.0  # "Gadolinium Ion Gd+3"
Setting atom values ...
  0 settings made for charge
    set type 648 charge 3.0  # "Ytterbium Ion Yb+3"
Setting atom values ...
  0 settings made for charge
    set type 649 charge -0.344  # "Cl..CH3..Cl- Sn2 TS"
Setting atom values ...
  0 settings made for charge
    set type 650 charge -0.628  # "Cl..CH3..Cl- Sn2 TS"
Setting atom values ...
  0 settings made for charge
    set type 651 charge 0.2  # "Cl..CH3..Cl- Sn2 TS"
Setting atom values ...
  0 settings made for charge
    set type 652 charge -0.12  # "Cyclopropane -CH2-"
Setting atom values ...
  0 settings made for charge
    set type 653 charge -0.06  # "Cyclopropane -CHR-"
Setting atom values ...
  0 settings made for charge
    set type 654 charge 0.0  # "Cyclopropane -CR2-"
Setting atom values ...
  0 settings made for charge
    set type 655 charge -0.23  # "Cyclopentadienyl Anion"
Setting atom values ...
  0 settings made for charge
    set type 656 charge 0.03  # "Cyclopentadienyl Anion"
Setting atom values ...
  0 settings made for charge
    set type 657 charge -0.099  # "Cyclopentadienyl Radical"
Setting atom values ...
  0 settings made for charge
    set type 658 charge 0.099  # "Cyclopentadienyl Radical"
Setting atom values ...
  0 settings made for charge
    set type 659 charge 0.22  # "Fluorobenzene CF"
Setting atom values ...
  0 settings made for charge
    set type 660 charge -0.22  # "Fluorobenzene CF"
Setting atom values ...
  0 settings made for charge
    set type 661 charge 0.13  # "Hexafluorobenzene CF"
Setting atom values ...
  0 settings made for charge
    set type 662 charge -0.13  # "Hexafluorobenzene CF"
Setting atom values ...
  0 settings made for charge
    set type 663 charge -0.22  # "Bromide -CH2-Br (UA)"
Setting atom values ...
  0 settings made for charge
    set type 664 charge 0.22  # "Bromide -CH2-Br (UA)"
Setting atom values ...
  0 settings made for charge
    set type 665 charge 0.15  # "TrifluoroMeBenzene C-CF3"
Setting atom values ...
  0 settings made for charge
    set type 666 charge 0.45  # "TrifluoroMeBenzene CF3-"
Setting atom values ...
  0 settings made for charge
    set type 667 charge -0.2  # "TrifluoroMeBenzene CF3-"
Setting atom values ...
  0 settings made for charge
    set type 668 charge 0.2  # "Difluorobenzene CF"
Setting atom values ...
  0 settings made for charge
    set type 669 charge -0.2  # "Difluorobenzene CF"
Setting atom values ...
  0 settings made for charge
    set type 670 charge 0.2  # "Bromobenzene CBr"
Setting atom values ...
  0 settings made for charge
    set type 671 charge -0.2  # "Bromobenzene CBr"
Setting atom values ...
  0 settings made for charge
    set type 672 charge 0.1  # "Iodobenzene CI"
Setting atom values ...
  0 settings made for charge
    set type 673 charge -0.1  # "Iodobenzene CI"
Setting atom values ...
  0 settings made for charge
    set type 674 charge 0.055  # "cProp/cBut Benzene C-Ar"
Setting atom values ...
  0 settings made for charge
    set type 675 charge -0.22  # "Thiophenol SH"
Setting atom values ...
  0 settings made for charge
    set type 676 charge 0.065  # "Thiophenol C-SH"
Setting atom values ...
  0 settings made for charge
    set type 677 charge 0.013  # "Benzamidine CG"
Setting atom values ...
  0 settings made for charge
    set type 678 charge -0.106  # "Benzamidine CD"
Setting atom values ...
  0 settings made for charge
    set type 679 charge -0.09  # "Benzamidine CE"
Setting atom values ...
  0 settings made for charge
    set type 680 charge -0.119  # "Benzamidine CZ"
Setting atom values ...
  0 settings made for charge
    set type 681 charge 0.141  # "Benzamidine HCD"
Setting atom values ...
  0 settings made for charge
    set type 682 charge 0.129  # "Benzamidine HCE"
Setting atom values ...
  0 settings made for charge
    set type 683 charge 0.827  # "Benzamidine C+"
Setting atom values ...
  0 settings made for charge
    set type 684 charge -0.885  # "Benzamidine -NH2"
Setting atom values ...
  0 settings made for charge
    set type 685 charge 0.426  # "Benzamidine H1-N"
Setting atom values ...
  0 settings made for charge
    set type 686 charge 0.465  # "Benzamidine H2-N"
Setting atom values ...
  0 settings made for charge
    set type 687 charge 0.119  # "Benzamidine HCG"
Setting atom values ...
  0 settings made for charge
    set type 688 charge -0.02  # "Neutral MeGdn CH3-"
Setting atom values ...
  0 settings made for charge
    set type 689 charge 0.04  # "Neutral ARG CD"
Setting atom values ...
  0 settings made for charge
    set type 690 charge -0.62  # "Neutral ARG NE"
Setting atom values ...
  0 settings made for charge
    set type 691 charge -0.785  # "Neutral ARG N1 (HN=C)"
Setting atom values ...
  0 settings made for charge
    set type 692 charge -0.785  # "Neutral ARG N2 (H2N-C)"
Setting atom values ...
  0 settings made for charge
    set type 693 charge 0.55  # "Neutral ARG CZ (>C=)"
Setting atom values ...
  0 settings made for charge
    set type 694 charge -0.56  # "Alkyl Nitrile -CN"
Setting atom values ...
  0 settings made for charge
    set type 695 charge 0.46  # "Alkyl Nitrile -CN"
Setting atom values ...
  0 settings made for charge
    set type 696 charge -0.08  # "Acetonitrile CH3-CN"
Setting atom values ...
  0 settings made for charge
    set type 697 charge -0.02  # "Alkyl Nitrile RCH2-CN"
Setting atom values ...
  0 settings made for charge
    set type 698 charge 0.04  # "Alkyl Nitrile R2CH-CN"
Setting atom values ...
  0 settings made for charge
    set type 699 charge 0.1  # "Alkyl Nitrile R3C-CN"
Setting atom values ...
  0 settings made for charge
    set type 700 charge 0.06  # "Alkyl Nitrile H-C-CN"
Setting atom values ...
  0 settings made for charge
    set type 701 charge 0.54  # "Nitroalkane -NO2"
Setting atom values ...
  0 settings made for charge
    set type 702 charge -0.37  # "Nitroalkane -NO2"
Setting atom values ...
  0 settings made for charge
    set type 703 charge 0.02  # "Nitromethane CH3-NO2"
Setting atom values ...
  0 settings made for charge
    set type 704 charge 0.06  # "Nitroalkane H-C-NO2"
Setting atom values ...
  0 settings made for charge
    set type 705 charge 0.08  # "Nitroalkane RCH2-NO2"
Setting atom values ...
  0 settings made for charge
    set type 706 charge 0.14  # "Nitroalkane R2CH-NO2"
Setting atom values ...
  0 settings made for charge
    set type 707 charge 0.2  # "Nitroalkane R3C-NO2"
Setting atom values ...
  0 settings made for charge
    set type 708 charge 0.65  # "Nitrobenzene -NO2"
Setting atom values ...
  0 settings made for charge
    set type 709 charge 0.09  # "Nitrobenzene C-NO2"
Setting atom values ...
  0 settings made for charge
    set type 710 charge 0.035  # "Benzonitrile -CH2-"
Setting atom values ...
  0 settings made for charge
    set type 711 charge -0.9  # "Neutral Benzamidine N"
Setting atom values ...
  0 settings made for charge
    set type 712 charge -0.5  # "Propylene Carbonate C=O"
Setting atom values ...
  0 settings made for charge
    set type 713 charge 0.86  # "Propylene Carbonate C=O"
Setting atom values ...
  0 settings made for charge
    set type 714 charge -0.45  # "Propylene Carbonate C-O"
Setting atom values ...
  0 settings made for charge
    set type 715 charge 0.21  # "Propylene Carbonate CH2"
Setting atom values ...
  0 settings made for charge
    set type 716 charge 0.16  # "Propylene Carbonate CH"
Setting atom values ...
  0 settings made for charge
    set type 717 charge -0.1  # "Propylene Carbonate CH3"
Setting atom values ...
  0 settings made for charge
    set type 718 charge 0.03  # "Propylene Carbonate CH2"
Setting atom values ...
  0 settings made for charge
    set type 719 charge 0.03  # "Propylene Carbonate CH"
Setting atom values ...
  0 settings made for charge
    set type 720 charge 0.06  # "Propylene Carbonate CH3"
Setting atom values ...
  0 settings made for charge
    set type 721 charge -0.78  # "GTP O-(POn)2"
Setting atom values ...
  0 settings made for charge
    set type 722 charge 0.9684  # "Phosphonium R4P+"
Setting atom values ...
  0 settings made for charge
    set type 723 charge -0.5081  # "Phosphonium CH3-PR3+"
Setting atom values ...
  0 settings made for charge
    set type 724 charge -0.008  # "Phosphonium RCH2-PR3+"
Setting atom values ...
  0 settings made for charge
    set type 725 charge 0.172  # "Phosphonium CH3-PR3+"
Setting atom values ...
  0 settings made for charge
    set type 726 charge 1.34  # "Hexafluorophosphate Ion"
Setting atom values ...
  0 settings made for charge
    set type 727 charge -0.39  # "Hexafluorophosphate Ion"
Setting atom values ...
  0 settings made for charge
    set type 728 charge 0.794  # "Nitrate Ion NO3-"
Setting atom values ...
  0 settings made for charge
    set type 729 charge -0.598  # "Nitrate Ion NO3-"
Setting atom values ...
  0 settings made for charge
    set type 730 charge -0.9  # "Amine RNH2"
Setting atom values ...
  0 settings made for charge
    set type 731 charge -0.78  # "Amine R2NH"
Setting atom values ...
  0 settings made for charge
    set type 732 charge -0.63  # "Amine R3N"
Setting atom values ...
  0 settings made for charge
    set type 733 charge 0.0  # "Amine CH3-NH2"
Setting atom values ...
  0 settings made for charge
    set type 734 charge 0.02  # "Amine CH3-NHR"
Setting atom values ...
  0 settings made for charge
    set type 735 charge 0.03  # "Amine CH3-NR2"
Setting atom values ...
  0 settings made for charge
    set type 736 charge 0.06  # "Amine RCH2-NH2"
Setting atom values ...
  0 settings made for charge
    set type 737 charge 0.08  # "Amine RCH2-NHR"
Setting atom values ...
  0 settings made for charge
    set type 738 charge 0.09  # "Amine RCH2-NR2"
Setting atom values ...
  0 settings made for charge
    set type 739 charge 0.36  # "Amine RNH2"
Setting atom values ...
  0 settings made for charge
    set type 740 charge 0.38  # "Amine R2NH"
Setting atom values ...
  0 settings made for charge
    set type 741 charge 0.06  # "Amine H-C-N"
Setting atom values ...
  0 settings made for charge
    set type 742 charge 0.12  # "Amine R2CH-NH2"
Setting atom values ...
  0 settings made for charge
    set type 743 charge 0.18  # "Amine R3C-NH2"
Setting atom values ...
  0 settings made for charge
    set type 744 charge 0.14  # "Amine R2CH-NHR"
Setting atom values ...
  0 settings made for charge
    set type 745 charge 0.15  # "Amine R2CH-NR2"
Setting atom values ...
  0 settings made for charge
    set type 746 charge 0.18  # "Aniline C-NH2"
Setting atom values ...
  0 settings made for charge
    set type 747 charge 0.2  # "N-Me Aniline C-NHR"
Setting atom values ...
  0 settings made for charge
    set type 748 charge 0.21  # "N-DiMe Aniline C-NR2"
Setting atom values ...
  0 settings made for charge
    set type 749 charge 0.115  # "Benzyl Amine -CH2NH2"
Setting atom values ...
  0 settings made for charge
    set type 750 charge 0.175  # "Benzyl Amine -CHRNH2"
Setting atom values ...
  0 settings made for charge
    set type 751 charge 0.235  # "Benzyl Amine -CR2NH2"
Setting atom values ...
  0 settings made for charge
    set type 752 charge 0.195  # "Benzyl Ether -CH2OR"
Setting atom values ...
  0 settings made for charge
    set type 753 charge 0.1525  # "Benzyl Sulfide -CH2SH"
Setting atom values ...
  0 settings made for charge
    set type 754 charge 0.135  # "Benzyl Amine -CH2NHR"
Setting atom values ...
  0 settings made for charge
    set type 755 charge -0.21  # "Alkyne HCC-"
Setting atom values ...
  0 settings made for charge
    set type 756 charge 0.2  # "Alkyne HCC-"
Setting atom values ...
  0 settings made for charge
    set type 757 charge 0.01  # "Alkyne RCCH R w/ 2/3 H"
Setting atom values ...
  0 settings made for charge
    set type 758 charge 0.01  # "Alkyne RCCH R w/ 1 H"
Setting atom values ...
  0 settings made for charge
    set type 759 charge 0.01  # "Alkyne RCCH R w/ O H/Ph"
Setting atom values ...
  0 settings made for charge
    set type 760 charge 0.06  # "Alkyne H-C-CC-"
Setting atom values ...
  0 settings made for charge
    set type 761 charge 0.45  # "A & G Sugar C1'"
Setting atom values ...
  0 settings made for charge
    set type 762 charge 0.48  # "C Sugar C1'"
Setting atom values ...
  0 settings made for charge
    set type 763 charge 0.51  # "U & T Sugar C1'"
Setting atom values ...
  0 settings made for charge
    set type 764 charge -0.655  # "Sugar O5'"
Setting atom values ...
  0 settings made for charge
    set type 765 charge 0.39  # "Sugar H3' (-OH)"
Setting atom values ...
  0 settings made for charge
    set type 766 charge -0.5  # "A & G Nucleoside N9"
Setting atom values ...
  0 settings made for charge
    set type 767 charge -0.56  # "C Nucleoside N1"
Setting atom values ...
  0 settings made for charge
    set type 768 charge -0.6  # "U & T Nucleoside N1"
Setting atom values ...
  0 settings made for charge
    set type 769 charge 0.0  # "Alkyne RCCR"
Setting atom values ...
  0 settings made for charge
    set type 770 charge -0.1  # "Ammonium R3NH+"
Setting atom values ...
  0 settings made for charge
    set type 771 charge 0.29  # "Ammonium R3NH+"
Setting atom values ...
  0 settings made for charge
    set type 772 charge 0.09  # "Ammonium CH3-NHR2+"
Setting atom values ...
  0 settings made for charge
    set type 773 charge 0.15  # "Ammonium RCH2-NHR2+"
Setting atom values ...
  0 settings made for charge
    set type 774 charge 0.21  # "Ammonium R2CH-NHR2+"
Setting atom values ...
  0 settings made for charge
    set type 775 charge 0.27  # "Ammonium R3C-NHR2+"
Setting atom values ...
  0 settings made for charge
    set type 776 charge 0.096  # "2-Phenyl Furan C2"
Setting atom values ...
  0 settings made for charge
    set type 777 charge -0.039  # "2-Phenyl Furan C3"
Setting atom values ...
  0 settings made for charge
    set type 778 charge 0.027  # "2-Phenyl Furan C2'"
Setting atom values ...
  0 settings made for charge
    set type 779 charge 0.011  # "2-Phenyl Furan C3'"
Setting atom values ...
  0 settings made for charge
    set type 780 charge 0.074  # "GLY Zwitterion HA"
Setting atom values ...
  0 settings made for charge
    set type 781 charge -0.029  # "GLY Zwitterion CA"
Setting atom values ...
  0 settings made for charge
    set type 782 charge 0.7  # "GLY Zwitterion C"
Setting atom values ...
  0 settings made for charge
    set type 783 charge -0.352  # "GLY Zwitterion N"
Setting atom values ...
  0 settings made for charge
    set type 784 charge -0.709  # "GLY Zwitterion O"
Setting atom values ...
  0 settings made for charge
    set type 785 charge 0.317  # "GLY Zwitterion HN"
Setting atom values ...
  0 settings made for charge
    set type 786 charge -0.22  # "Alkyl Fluoride C-F"
Setting atom values ...
  0 settings made for charge
    set type 787 charge 0.02  # "Alkyl Fluoride RCH2-F"
Setting atom values ...
  0 settings made for charge
    set type 788 charge 0.1  # "Alkyl Fluoride H-C-F"
Setting atom values ...
  0 settings made for charge
    set type 789 charge 0.12  # "Alkyl Fluoride R2CH-F"
Setting atom values ...
  0 settings made for charge
    set type 790 charge 0.22  # "Alkyl Fluoride R3C-F"
Setting atom values ...
  0 settings made for charge
    set type 791 charge 0.36  # "Perfluoroalkane CF3-"
Setting atom values ...
  0 settings made for charge
    set type 792 charge 0.24  # "Perfluoroalkane -CF2-"
Setting atom values ...
  0 settings made for charge
    set type 793 charge 0.12  # "Perfluoroalkane >CF-"
Setting atom values ...
  0 settings made for charge
    set type 794 charge 0.48  # "Tetrafluoromethane CF4"
Setting atom values ...
  0 settings made for charge
    set type 795 charge -0.12  # "Perfluoroalkane C-F"
Setting atom values ...
  0 settings made for charge
    set type 796 charge 0.25  # "DifluoroMeBenzene -CHF2"
Setting atom values ...
  0 settings made for charge
    set type 797 charge 0.15  # "DifluoroMeBenzene -CHF2"
Setting atom values ...
  0 settings made for charge
    set type 798 charge -0.08  # "Fluoroacetate FCH2-COO-"
Setting atom values ...
  0 settings made for charge
    set type 799 charge -0.106  # "Chloroacetate ClCH2-COO-"
Setting atom values ...
  0 settings made for charge
    set type 800 charge -0.2  # "Alkyl Chloride C-Cl"
Setting atom values ...
  0 settings made for charge
    set type 801 charge -0.006  # "Alkyl Chloride RCH2-Cl"
Setting atom values ...
  0 settings made for charge
    set type 802 charge 0.103  # "Alkyl Chloride H-C-Cl"
Setting atom values ...
  0 settings made for charge
    set type 803 charge 0.097  # "Alkyl Chloride R2CH-Cl"
Setting atom values ...
  0 settings made for charge
    set type 804 charge 0.2  # "Alkyl Chloride R3C-Cl"
Setting atom values ...
  0 settings made for charge
    set type 805 charge -0.2  # "Alkyl Bromide C-Br"
Setting atom values ...
  0 settings made for charge
    set type 806 charge -0.006  # "Alkyl Bromide RCH2-Br"
Setting atom values ...
  0 settings made for charge
    set type 807 charge 0.103  # "Alkyl Bromide H-C-Br"
Setting atom values ...
  0 settings made for charge
    set type 808 charge 0.097  # "Alkyl Bromide R2CH-Br"
Setting atom values ...
  0 settings made for charge
    set type 809 charge 0.2  # "Alkyl Bromide R3C-Br"
Setting atom values ...
  0 settings made for charge
    set type 810 charge -0.08  # "Acyl Fluoride F-C=O"
Setting atom values ...
  0 settings made for charge
    set type 811 charge -0.08  # "Acyl Chloride Cl-C=O"
Setting atom values ...
  0 settings made for charge
    set type 812 charge -0.08  # "Acyl Bromide Br-C=O"
Setting atom values ...
  0 settings made for charge
    set type 813 charge 0.1  # "Trifluoroanisole C-OCF3"
Setting atom values ...
  0 settings made for charge
    set type 814 charge -0.25  # "Trifluoroanisole -OCF3"
Setting atom values ...
  0 settings made for charge
    set type 815 charge 0.6  # "Trifluoroanisole -OCF3"
Setting atom values ...
  0 settings made for charge
    set type 816 charge -0.15  # "Trifluoroanisole -OCF3"
Setting atom values ...
  0 settings made for charge
    set type 817 charge -0.025  # "N-Me,N-PhAcetamide N"
Setting atom values ...
  0 settings made for charge
    set type 818 charge -0.045  # "N-Me,N-PhAcetamide Cipso"
Setting atom values ...
  0 settings made for charge
    set type 819 charge 0.145  # "Benzyl Amine -CH2NR2"
Setting atom values ...
  0 settings made for charge
    set type 820 charge 0.888  # "Alkyl Hydroxamic Acid C"
Setting atom values ...
  0 settings made for charge
    set type 821 charge 1.003  # "Aryl Hydroxamic Acid C"
Setting atom values ...
  0 settings made for charge
    set type 822 charge -0.658  # "Hydroxamic Acid C=O"
Setting atom values ...
  0 settings made for charge
    set type 823 charge -0.634  # "Hydroxamic Acid N"
Setting atom values ...
  0 settings made for charge
    set type 824 charge 0.411  # "Hydroxamic Acid HN"
Setting atom values ...
  0 settings made for charge
    set type 825 charge -0.442  # "Hydroxamic Acid OH"
Setting atom values ...
  0 settings made for charge
    set type 826 charge 0.435  # "Hydroxamic Acid OH"
Setting atom values ...
  0 settings made for charge
    set type 827 charge 0.225  # "Benzyl Ether -CHROR"
Setting atom values ...
  0 settings made for charge
    set type 828 charge 0.255  # "Benzyl Ether -CR2OR"
Setting atom values ...
  0 settings made for charge
    set type 829 charge -0.034  # "3-Phenyl Pyrrole C3"
Setting atom values ...
  0 settings made for charge
    set type 830 charge 0.003  # "3-Phenyl Pyrrole C3'"
Setting atom values ...
  0 settings made for charge
    set type 831 charge 0.3  # "4-Phenyl Imidazole C4"
Setting atom values ...
  0 settings made for charge
    set type 832 charge -0.04  # "4-Phenyl Imidazole C4'"
Setting atom values ...
  0 settings made for charge
    set type 833 charge -0.0575  # "Diphenylmethane Cipso"
Setting atom values ...
  0 settings made for charge
    set type 834 charge 2.0  # "Zinc Ion Zn+2"
Setting atom values ...
  0 settings made for charge
    set type 835 charge -0.07  # "Alkyl Iodide RCH2-I"
Setting atom values ...
  0 settings made for charge
    set type 836 charge 0.03  # "Alkyl Iodide R2CH-I"
Setting atom values ...
  0 settings made for charge
    set type 837 charge 0.13  # "Alkyl Iodide R3C-I"
Setting atom values ...
  0 settings made for charge
    set type 838 charge -0.13  # "Alkyl Iodide C-I"
Setting atom values ...
  0 settings made for charge
    set type 839 charge 0.1  # "Alkyl Iodide H-C-I"
Setting atom values ...
  0 settings made for charge
    set type 840 charge -0.685  # "N-Ph Sulfonamide -NHPh"
Setting atom values ...
  0 settings made for charge
    set type 841 charge 0.155  # "N-Ph Sulfonamide Cipso"
Setting atom values ...
  0 settings made for charge
    set type 842 charge -0.1  # "Benzoate C-COO-"
Setting atom values ...
  0 settings made for charge
    set type 843 charge -0.427  # "N-Phenyl Urea N"
Setting atom values ...
  0 settings made for charge
    set type 844 charge 0.218  # "N-Phenyl Urea Cipso"
Setting atom values ...
  0 settings made for charge
    set type 845 charge 0.6  # "Tertiary Amide -CO-NR2"
Setting atom values ...
  0 settings made for charge
    set type 846 charge -0.6  # "Tertiary Amide -CO-NR2"
Setting atom values ...
  0 settings made for charge
    set type 847 charge -0.36  # "Tertiary Amide -CO-NR2"
Setting atom values ...
  0 settings made for charge
    set type 848 charge 0.0  # "Tertiary Amide -NRCH3"
Setting atom values ...
  0 settings made for charge
    set type 849 charge 0.06  # "Tertiary Amide -NRCH2R"
Setting atom values ...
  0 settings made for charge
    set type 850 charge 0.12  # "Tertiary Amide -NRCHR2"
Setting atom values ...
  0 settings made for charge
    set type 851 charge 0.18  # "Tertiary Amide -NRCR3"
Setting atom values ...
  0 settings made for charge
    set type 852 charge 0.06  # "Tertiary Amide H-C-N"
Setting atom values ...
  0 settings made for charge
    set type 853 charge 0.57  # "Tertiary Formamide C=O"
Setting atom values ...
  0 settings made for charge
    set type 854 charge -0.57  # "Tertiary Formamide C=O"
Setting atom values ...
  0 settings made for charge
    set type 855 charge 0.0  # "Tertiary Formamide H-C=O"
Setting atom values ...
  0 settings made for charge
    set type 856 charge 0.02  # "B2-Peptide CA"
Setting atom values ...
  0 settings made for charge
    set type 857 charge -0.04  # "B3-Peptide CA Main/N-Ter"
Setting atom values ...
  0 settings made for charge
    set type 858 charge 0.0  # "B3-Pep CB GLY Main/C-Ter"
Setting atom values ...
  0 settings made for charge
    set type 859 charge 0.06  # "B3-Pep CB ALA Main/C-Ter"
Setting atom values ...
  0 settings made for charge
    set type 860 charge -0.07  # "B3-Pep CB PRO Main/C-Ter"
Setting atom values ...
  0 settings made for charge
    set type 861 charge -0.14  # "B3-Peptide CA C-Ter"
Setting atom values ...
  0 settings made for charge
    set type 862 charge 0.17  # "B3-Peptide CB ALA N-Ter"
Setting atom values ...
  0 settings made for charge
    set type 863 charge 0.11  # "B3-Peptide CB GLY N-Ter"
Setting atom values ...
  0 settings made for charge
    set type 864 charge 0.15  # "B3-Peptide CB PRO N-Ter"
Setting atom values ...
  0 settings made for charge
    set type 865 charge 0.17  # "B3-Peptide CE PRO N-Ter"
Setting atom values ...
  0 settings made for charge
    set type 866 charge 1.0  # "Alkyl Silane R4Si"
Setting atom values ...
  0 settings made for charge
    set type 867 charge 0.85  # "Alkyl Silane R3SiH"
Setting atom values ...
  0 settings made for charge
    set type 868 charge 0.7  # "Alkyl Silane R2SiH2"
Setting atom values ...
  0 settings made for charge
    set type 869 charge 0.55  # "Alkyl Silane RSiH3"
Setting atom values ...
  0 settings made for charge
    set type 870 charge -0.1  # "Alkyl Silane H-C-Si"
Setting atom values ...
  0 settings made for charge
    set type 871 charge -0.43  # "Methyl Silane CH3-Si"
Setting atom values ...
  0 settings made for charge
    set type 872 charge -0.37  # "Alkyl Silane RCH2-Si"
Setting atom values ...
  0 settings made for charge
    set type 873 charge -0.31  # "Alkyl Silane R2CH-Si"
Setting atom values ...
  0 settings made for charge
    set type 874 charge -0.25  # "Alkyl Silane R3C-Si"
Setting atom values ...
  0 settings made for charge
    set type 875 charge -1.0  # "Fluoride Ion (GBSA)"
Setting atom values ...
  0 settings made for charge
    set type 876 charge -1.0  # "Chloride Ion (GBSA)"
Setting atom values ...
  125 settings made for charge
    set type 877 charge -1.0  # "Bromide Ion (GBSA)"
Setting atom values ...
  0 settings made for charge
    set type 878 charge -1.0  # "Iodide Ion (GBSA)"
Setting atom values ...
  0 settings made for charge
    set type 879 charge 1.0  # "Lithium Ion (GBSA)"
Setting atom values ...
  0 settings made for charge
    set type 880 charge 1.0  # "Sodium Ion (GBSA)"
Setting atom values ...
  0 settings made for charge
    set type 881 charge 1.0  # "Potassium Ion (GBSA)"
Setting atom values ...
  0 settings made for charge
    set type 882 charge 1.0  # "Rubidium Ion (GBSA)"
Setting atom values ...
  0 settings made for charge
    set type 883 charge 1.0  # "Cesium Ion (GBSA)"
Setting atom values ...
  0 settings made for charge
    set type 884 charge 2.0  # "Magnesium Ion (GBSA)"
Setting atom values ...
  0 settings made for charge
    set type 885 charge 2.0  # "Calcium Ion (GBSA)"
Setting atom values ...
  0 settings made for charge
    set type 886 charge 2.0  # "Strontium Ion (GBSA)"
Setting atom values ...
  0 settings made for charge
    set type 887 charge 2.0  # "Barium Ion (GBSA)"
Setting atom values ...
  0 settings made for charge
    set type 888 charge -0.05  # "Ammonium CH3-NR3+"
Setting atom values ...
  0 settings made for charge
    set type 889 charge 0.05  # "Ammonium RCH2-NR3+"
Setting atom values ...
  0 settings made for charge
    set type 890 charge 0.15  # "Ammonium R2CH-NR3+"
Setting atom values ...
  0 settings made for charge
    set type 891 charge 0.25  # "Ammonium R3C-NR3+"
Setting atom values ...
  0 settings made for charge
    set type 892 charge 0.1  # "Ammonium CH3-NR3+"
Setting atom values ...
  0 settings made for charge
    set type 893 charge 0.115  # "Anilinium Ar-NR3+"
Setting atom values ...
  0 settings made for charge
    set type 894 charge 0.135  # "Anilinium C-NR3+"
Setting atom values ...
  0 settings made for charge
    set type 895 charge 0.015  # "Anilinium Ar-NHR2+"
Setting atom values ...
  0 settings made for charge
    set type 896 charge 0.155  # "Anilinium C-NHR2+"
Setting atom values ...
  0 settings made for charge
    set type 897 charge 0.0  # "Triene R2-C= (mid C=C)"
Setting atom values ...
  0 settings made for charge
    set type 898 charge -0.115  # "Triene RH-C= (mid C=C)"
Setting atom values ...
  0 settings made for charge
    set type 899 charge 0.15  # "Allene/Ketene H-C=C=X"
Setting atom values ...
  0 settings made for charge
    set type 900 charge -0.25  # "Allene/Ketene H2C=C=X"
Setting atom values ...
  0 settings made for charge
    set type 901 charge -0.1  # "Allene/Ketene HRC=C=X"
Setting atom values ...
  0 settings made for charge
    set type 902 charge 0.05  # "Allene/Ketene R2C=C=X"
Setting atom values ...
  0 settings made for charge
    set type 903 charge -0.1  # "Allene =C="
Setting atom values ...
  0 settings made for charge
    set type 904 charge 0.2  # "Ketene =C="
Setting atom values ...
  0 settings made for charge
    set type 905 charge -0.25  # "Ketene C=O"
Setting atom values ...
  0 settings made for charge
    set type 906 charge 0.088  # "N-Me-HIS CB"
Setting atom values ...
  0 settings made for charge

# ------------------------------- Run Section -------------------------------

# -- simulation protocol --


timestep        0.5
dump            1 all custom 500 traj_nvt.lammpstrj id mol type x y z ix iy iz
fix             fxnvt all nvt temp 260.0 260.0 500.0 tchain 1
thermo_style    custom step temp pe etotal epair ebond eangle edihed
thermo          100
thermo_modify   norm yes

run		100000
PPPM initialization ...
WARNING: System is not charge neutral, net charge = -96.375000 (../kspace.cpp:325)
  using 12-bit tables for long-range coulomb (../kspace.cpp:340)
  G vector (1/distance) = 0.21718632
  grid = 12 12 12
  stencil order = 5
  estimated absolute RMS force accuracy = 0.020416938
  estimated relative force accuracy = 6.1485001e-05
  using double precision KISS FFT
  3d grid and FFT values/proc = 4913 1728
Neighbor list info ...
  update every 1 steps, delay 10 steps, check yes
  max neighbors/atom: 2000, page size: 100000
  master list distance cutoff = 13
  ghost atom cutoff = 13
  binsize = 6.5, bins = 6 6 6
  1 neighbor lists, perpetual/occasional/extra = 1 0 0
  (1) pair lj/cut/coul/long, perpetual
      attributes: half, newton on
      pair build: half/bin/newton
      stencil: half/bin/3d
      bin: standard
Per MPI rank memory allocation (min/avg/max) = 16.33 | 16.33 | 16.33 Mbytes
Step Temp PotEng TotEng E_pair E_bond E_angle E_dihed 
       0    299.44977   -3.9893903   -3.0972075    -5.113983   0.30278792   0.70844013   0.11336459 
     100    291.71529   -3.9678889   -3.0987502   -5.1136079   0.30328501   0.71147932   0.13095466 
     200    300.07635   -3.9969663   -3.1029167   -5.1129338   0.29199114   0.71168547   0.11229085 
     300    292.78264   -3.9816218   -3.1093031   -5.1147415   0.31475304   0.70407726   0.11428935 
     400    291.66913   -3.9878434   -3.1188423   -5.1097679    0.2958748   0.71129859   0.11475106 
     500     300.2534   -4.0252893   -3.1307121   -5.1154132   0.28982915   0.69169341   0.10860137 
     600    283.90786   -3.9905705   -3.1446933   -5.1063169   0.29673508   0.70522104   0.11379028 
     700    287.46146   -4.0168942   -3.1604294   -5.1116675   0.28297881    0.6948349   0.11695967 
     800      287.024   -4.0330681   -3.1779067   -5.1159754    0.2756199   0.69389778   0.11338968 
     900    282.74454   -4.0390568   -3.1966456   -5.1202142   0.27687553   0.69511324   0.10916868 
    1000    275.96245   -4.0382539   -3.2160494   -5.1070384   0.27185403   0.69220095   0.10472948 
    1100    274.49919   -4.0546589    -3.236814   -5.1155912   0.25987137   0.69044462   0.11061639 
    1200    272.61803   -4.0704388   -3.2581987   -5.1268853   0.26952598   0.68226956   0.10465093 
    1300    264.61707   -4.0677731   -3.2793711   -5.1190146   0.26206821    0.6825567   0.10661656 
    1400    265.51653   -4.0917498   -3.3006679   -5.1320114    0.2551049   0.68912997  0.096026756 
    1500    263.72519   -4.1081637    -3.322419   -5.1392591   0.26048506   0.67415704  0.096453316 
    1600    254.71921   -4.1028411   -3.3439288   -5.1358193   0.25186764   0.68082981   0.10028069 
    1700    255.31351   -4.1254578   -3.3647748   -5.1351694   0.24291614   0.66962658  0.097168912 
    1800    246.58349   -4.1196644   -3.3849918   -5.1423539   0.24645063   0.67495933   0.10127952 
    1900    244.02032   -4.1311056   -3.4040697   -5.1370461   0.24625686   0.66244435  0.097239227 
    2000     244.7844     -4.15152   -3.4222076   -5.1502521   0.23783807   0.66677999  0.094114003 
    2100    242.70081   -4.1624599   -3.4393553   -5.1541889   0.23308576   0.66592993  0.092713311 
    2200    240.41073   -4.1713361   -3.4550546   -5.1577548   0.22594547   0.67084847  0.089624726 
    2300    236.37691    -4.173647   -3.4693839   -5.1585463   0.23481573   0.66223945  0.087844039 
    2400     236.8637    -4.188076   -3.4823626   -5.1586705   0.21842006   0.66242734  0.089747114 
    2500    234.63411   -4.1930378   -3.4939672    -5.158111   0.22098378   0.65329742  0.090792042 
    2600    233.64774   -4.2000321   -3.5039003   -5.1670105    0.2250541   0.64834674  0.093577523 
    2700    230.93153   -4.2004583   -3.5124192   -5.1649179   0.22816565   0.64613119  0.090162775 
    2800      229.305   -4.2024708   -3.5192778   -5.1665567   0.21942771   0.65871898  0.085939224 
    2900    227.66372   -4.2029925   -3.5246896   -5.1628566   0.22422474   0.64677803  0.088861244 
    3000    229.29447   -4.2113214   -3.5281597   -5.1717673   0.22221507   0.64740687   0.09082396 
    3100    230.38999   -4.2163145   -3.5298889   -5.1687993   0.21808602   0.64745381  0.086944909 
    3200    228.97466   -4.2122525   -3.5300438   -5.1645262   0.21708898   0.64210643  0.093078299 
    3300     230.0513   -4.2140309   -3.5286144   -5.1685543   0.22045049    0.6458194  0.088253521 
    3400    233.11554   -4.2198718   -3.5253256   -5.1631331   0.21574438   0.64892061  0.078596357 
    3500    232.08235   -4.2117095   -3.5202417   -5.1672932   0.21893533   0.64654896  0.090099442 
    3600    231.51445   -4.2033577   -3.5135818   -5.1724669   0.22556047   0.64666435  0.096884342 
    3700    233.75792   -4.2021342   -3.5056741   -5.1695188   0.22246769   0.65718107  0.087735859 
    3800    232.81212   -4.1898195   -3.4961774   -5.1565187   0.23057872   0.64558607  0.090534449 
    3900    236.98229    -4.191019   -3.4849522   -5.1630541    0.2215585    0.6597379  0.090738679 
    4000    236.74587   -4.1774479   -3.4720856   -5.1606403    0.2358177   0.64976613   0.09760855 
    4100    243.39484   -4.1832964    -3.458124   -5.1593102   0.23052918   0.65359113  0.091893519 
    4200    246.82748   -4.1784386    -3.443039   -5.1608793   0.23145784   0.64891595    0.1020669 
    4300    250.06518   -4.1713549   -3.4263089   -5.1566467   0.23387034   0.66054574   0.09087575 
    4400    251.24546   -4.1573021   -3.4087395   -5.1599539   0.24568577     0.655545   0.10142107 
    4500    252.62079   -4.1432984   -3.3906381   -5.1485961   0.24064483   0.67078105  0.093871898 
    4600    259.19673   -4.1443994   -3.3721467   -5.1558751   0.24472537   0.67068441  0.096065934 
    4700    260.44698   -4.1287689   -3.3527913   -5.1479977   0.25059182   0.66586192   0.10277501 
    4800    261.26999   -4.1117737   -3.3333439   -5.1435648   0.25571841   0.67326159   0.10281112 
    4900    264.20684   -4.1010916   -3.3139118    -5.144298   0.25288897   0.68667248     0.103645 
    5000    269.41835   -4.0972608   -3.2945538   -5.1398257   0.25609822   0.68082973   0.10563692 
    5100    269.65964   -4.0785642   -3.2751383    -5.130893   0.26274499   0.68899457   0.10058915 
    5200     271.9862   -4.0667123   -3.2563546   -5.1325423   0.27297059   0.68704801   0.10581137 
    5300    272.16987   -4.0489539    -3.238049   -5.1329508   0.27635032    0.6983046   0.10934197 
    5400    280.48672   -4.0567482    -3.221064    -5.132338   0.26755947   0.69716225    0.1108681 
    5500    280.45243   -4.0404189   -3.2048368   -5.1321089   0.27896411   0.70282429   0.10990163 
    5600    285.44605   -4.0404765   -3.1900165    -5.132503   0.28041316   0.69886713   0.11274623 
    5700    287.00877   -4.0321951   -3.1770791   -5.1258456   0.28267967   0.70661791   0.10435289 
    5800    289.03504   -4.0271294   -3.1659763   -5.1243872   0.27757536   0.70785218   0.11183023 
    5900    296.57953   -4.0405264   -3.1568952    -5.133237   0.27784261   0.70291866   0.11194929 
    6000    292.36942   -4.0209851   -3.1498975   -5.1275634   0.29014791   0.70952643   0.10690396 
    6100     295.8279   -4.0270007   -3.1456089   -5.1198705   0.28050383   0.70757043   0.10479546 
    6200     289.9866    -4.007515   -3.1435268   -5.1172659   0.28739104   0.70781069   0.11454915 
    6300    295.28824   -4.0234446   -3.1436607   -5.1210311   0.28684238   0.70477888   0.10596523 
    6400    288.93795   -4.0066713   -3.1458075   -5.1252309   0.28250506   0.71490722   0.12114736 
    6500     294.5618   -4.0280376    -3.150418   -5.1250643   0.29441602   0.70313714  0.099473505 
    6600    291.20763   -4.0249533   -3.1573272   -5.1286763   0.28883889   0.69806049    0.1168236 
    6700    285.35043   -4.0167473   -3.1665721   -5.1189483   0.29409517   0.70510093   0.10300491 
    6800    286.69501   -4.0317944   -3.1776132   -5.1203239   0.28371208   0.70023263    0.1045848 
    6900    281.10499   -4.0276541   -3.1901278   -5.1170392     0.279804   0.70174231   0.10783881 
    7000    283.02417   -4.0474819   -3.2042376   -5.1212674   0.27485468   0.70102408  0.097906764 
    7100    275.20848   -4.0392392   -3.2192811   -5.1232662   0.28174372   0.69815467   0.10412861 
    7200    278.64109   -4.0657994   -3.2356141   -5.1311008   0.27150089   0.69170227   0.10209822 
    7300    279.27073   -4.0850849   -3.2530236   -5.1365363    0.2645867   0.68770875  0.099155986 
    7400    275.00602   -4.0906445   -3.2712896   -5.1396702   0.26375805   0.68772705  0.097540579 
    7500    268.18858   -4.0891686   -3.2901256   -5.1356595   0.26389142   0.68421224  0.098387223 
    7600    268.60517   -4.1096703   -3.3093861   -5.1321591   0.25359335    0.6776124  0.091283029 
    7700    259.83262   -4.1026147   -3.3284675   -5.1314943   0.25628369   0.67502053  0.097575312 
    7800    258.86529   -4.1185313   -3.3472662   -5.1357773   0.24906956   0.67340456  0.094771839 
    7900     257.1912   -4.1319061   -3.3656288   -5.1429847   0.23548066   0.67432566   0.10127226 
    8000    250.95241   -4.1308893   -3.3831999   -5.1449888   0.24726237   0.66969662  0.097140512 
    8100     247.5591   -4.1379346   -3.4003552   -5.1448769   0.24125022   0.67014558  0.095546553 
    8200    249.60578    -4.160302   -3.4166247   -5.1514122   0.23499207   0.66762535  0.088492757 
    8300    245.41962   -4.1631145   -3.4319095   -5.1486973   0.22901962    0.6619586  0.094604527 
    8400    236.25392   -4.1498081   -3.4459115   -5.1533048   0.23689094   0.67140137  0.095204368 
    8500    234.64511   -4.1579801   -3.4588767   -5.1516599   0.23822369   0.66254261  0.092913451 
    8600    234.32633   -4.1687524   -3.4705988   -5.1541105   0.23269347   0.65998119   0.09268342 
    8700    233.08296   -4.1753883   -3.4809392   -5.1599876   0.22493016   0.66091862  0.098750546 
    8800    234.35961   -4.1879222   -3.4896695   -5.1620429   0.22526199     0.658395  0.090463731 
    8900    230.23593   -4.1830362   -3.4970695   -5.1625359   0.22199334   0.66540656  0.092099862 
    9000    237.08739    -4.209588   -3.5032081   -5.1709686    0.2227609     0.654073  0.084546663 
    9100     234.4392   -4.2063826   -3.5078927   -5.1594415   0.21026487   0.65637648  0.086417535 
    9200    226.31215   -4.1849824   -3.5107063   -5.1532058   0.22027202   0.66152631  0.086425035 
    9300    231.32059   -4.2012866   -3.5120884   -5.1650532   0.22752598   0.65722682  0.079013787 
    9400    230.68077   -4.1992061   -3.5119141   -5.1599654   0.21923418   0.65588915  0.085635972 
    9500    228.75612   -4.1919593   -3.5104017   -5.1592117   0.21730262   0.66448215  0.085467621 
    9600    234.32884   -4.2053611      -3.5072   -5.1595193   0.22113471   0.65153683  0.081486698 
    9700    228.42832   -4.1827787   -3.5021977   -5.1642185   0.23311606   0.66107694  0.087246785 
    9800      237.085   -4.2023849   -3.4960121   -5.1590723   0.21664933   0.65525733  0.084780772 
    9900      232.644   -4.1815475   -3.4884063   -5.1591185   0.23357122    0.6595266  0.084473199 
   10000    234.48912   -4.1777837   -3.4791451   -5.1542738   0.22989611   0.66053065  0.086063349 
   10100    234.85503   -4.1683891   -3.4686603   -5.1500386   0.22345431   0.67073063  0.087464611 
   10200    236.90926   -4.1624411    -3.456592   -5.1599767   0.24295329   0.66885351   0.08572877 
   10300    243.42099   -4.1687495   -3.4434992   -5.1580893   0.23825119   0.66102214  0.090066452 
   10400    245.20448   -4.1596933   -3.4291293   -5.1549727   0.22494891   0.67595646  0.094374058 
   10500    247.14711   -4.1504305   -3.4140786   -5.1568106   0.24143045   0.67868717  0.086262486 
   10600      247.276   -4.1348485   -3.3981126   -5.1458436   0.24998816   0.66852772  0.092479252 
   10700    252.63035   -4.1344067    -3.381718   -5.1467037   0.24194954   0.67853919  0.091808197 
   10800    253.93093     -4.12117   -3.3646063   -5.1410393   0.24397326   0.67459299   0.10130302 
   10900    262.30204   -4.1284083   -3.3469037    -5.147051   0.25654779   0.66664161   0.09545328 
   11000    265.61339   -4.1204983   -3.3291278   -5.1407936    0.2537796   0.67088301  0.095632641 
   11100    267.49525   -4.1084094   -3.3114321   -5.1387376    0.2480919   0.67713535   0.10510094 
   11200    270.66112   -4.1002218   -3.2938121   -5.1312469   0.26257814   0.67423004  0.094216895 
   11300    271.60949   -4.0859288   -3.2766934   -5.1276218   0.26026255   0.68358941  0.097841125 
   11400    278.24019   -4.0889636   -3.2599728    -5.133591   0.26535787   0.67737074   0.10189874 
   11500    279.01754   -4.0754026   -3.2440957   -5.1365654   0.25911522   0.69892996   0.10311761 
   11600    285.40226   -4.0796185   -3.2292889   -5.1336768   0.26466085   0.68608451   0.10331289 
   11700    282.34575   -4.0567116   -3.2154886   -5.1246455   0.27457502   0.69220675   0.10115214 
   11800    285.77795   -4.0549952   -3.2035463   -5.1284612   0.26920607   0.69298097   0.11127894 
   11900    278.61993   -4.0225734   -3.1924512   -5.1223431   0.28160437   0.71228582   0.10587952 
   12000    292.84626   -4.0559947   -3.1834864   -5.1276265   0.26537512   0.70011259   0.10614403 
   12100    286.71659   -4.0301881   -3.1759426    -5.121368   0.26945255   0.71375168   0.10797562 
   12200    284.51085   -4.0176784   -3.1700047    -5.113793   0.27702689   0.70980205   0.10928571 
   12300    295.54583   -4.0468364    -3.166285   -5.1207866   0.27286957    0.6932922   0.10778849 
   12400    293.54545   -4.0389856   -3.1643942   -5.1234628   0.27476654   0.69990367   0.10980695 
   12500    287.80079   -4.0221159   -3.1646401   -5.1192488   0.26876678   0.71889672   0.10946938 
   12600    293.50047   -4.0412308   -3.1667734   -5.1246951   0.26284381   0.71002189   0.11059855 
   12700     290.7227   -4.0370198   -3.1708384   -5.1302046   0.27774867   0.70591163   0.10952455 
   12800     290.4444   -4.0422877   -3.1769355   -5.1304153   0.27359385   0.71207224    0.1024615 
   12900    284.06963   -4.0314305   -3.1850713   -5.1283512   0.27517313   0.70848394   0.11326366 
   13000    281.69621   -4.0343307    -3.195043   -5.1241809   0.27052446   0.71141277     0.107913 
   13100    281.15058   -4.0443761    -3.206714   -5.1308201   0.27029455   0.70593453   0.11021484 
   13200    277.18458   -4.0455687    -3.219723   -5.1269256   0.27841774   0.70028085   0.10265829 
   13300    277.49932   -4.0605284   -3.2337448   -5.1268252   0.26493133   0.70148997  0.099875535 
   13400    273.14912   -4.0627034   -3.2488809    -5.121467   0.26430899   0.69682704   0.09762762 
   13500    271.60993    -4.074229   -3.2649924   -5.1292208    0.2663573   0.68429974   0.10433474 
   13600    274.14678   -4.0985641   -3.2817692   -5.1406738   0.25499341   0.69123919  0.095877078 
   13700    264.16827   -4.0857727   -3.2987078   -5.1442386   0.26950713   0.69022067  0.098738111 
   13800    260.09124   -4.0911136   -3.3161958   -5.1392393   0.25509116    0.6953925  0.097642083 
   13900    261.64127   -4.1131702   -3.3336343   -5.1460797    0.2445535   0.69149682  0.096859123 
   14000    253.85923   -4.1073851    -3.351035   -5.1395682    0.2448396   0.69030818  0.097035394 
   14100    254.21758   -4.1253982   -3.3679804   -5.1417331   0.25164515   0.67512179  0.089568002 
   14200    250.77556   -4.1321364   -3.3849739   -5.1474606    0.2380468   0.68463983  0.092637568 
   14300     259.7863   -4.1751936   -3.4011844   -5.1559813   0.22998944    0.6550657    0.0957326 
   14400    241.82276   -4.1371028   -3.4166143    -5.144818   0.25090328   0.66998416  0.086827832 
   14500    242.84627   -4.1544771   -3.4309391   -5.1515846   0.24041574   0.66092829  0.095763462 
   14600     247.9133   -4.1829731   -3.4443384    -5.157914   0.22337062   0.65694053  0.094629818 
   14700    237.02519   -4.1626718   -3.4564772   -5.1618222   0.23726732   0.66239417  0.099488905 
   14800    236.21045   -4.1711611    -3.467394   -5.1565031   0.23706684   0.65302998  0.095245129 
   14900    237.57736   -4.1853717    -3.477532   -5.1575246   0.23392278   0.64792833  0.090301727 
   15000     232.0711   -4.1773323    -3.485898   -5.1637022    0.2311358   0.66064512  0.094588898 
   15100    236.08632   -4.1964569   -3.4930596   -5.1708861   0.22873126   0.65446797  0.091230003 
   15200    233.30507    -4.194035   -3.4989242   -5.1713384   0.22758403   0.65971439  0.090004946 
   15300    232.44498    -4.195924   -3.5033757   -5.1657389   0.21813124   0.65970386  0.091979869 
   15400     232.8563   -4.2001027   -3.5063289   -5.1655104   0.21156198   0.66270538  0.091140376 
   15500    232.54838   -4.2004325   -3.5075761   -5.1692281   0.22971484    0.6529883  0.086092503 
   15600    235.95759   -4.2109356   -3.5079218   -5.1687401   0.21958206   0.64581048  0.092411955 
   15700    230.71706   -4.1940069   -3.5066068   -5.1632214   0.21795153   0.66051502  0.090747881 
   15800      233.072   -4.1982339   -3.5038175   -5.1737902   0.23324783   0.64899834  0.093310117 
   15900    237.29779   -4.2067177   -3.4997109   -5.1696869   0.22956251   0.64930917  0.084097556 
   16000    233.23222   -4.1892074   -3.4943137   -5.1634376    0.2266584   0.65863645  0.088935328 
   16100     236.9526   -4.1934921   -3.4875138   -5.1684332   0.22919206   0.65479387  0.090955187 
   16200    235.34366   -4.1805399   -3.4793553   -5.1650194    0.2376648   0.65532775  0.091486958 
   16300    241.67241   -4.1900182   -3.4699777   -5.1716988   0.23514699   0.65348737  0.093046179 
   16400    240.63505    -4.176543   -3.4595932   -5.1681919   0.23370121   0.67034647  0.087601213 
   16500    241.65049   -4.1680501   -3.4480749   -5.1630539    0.2311994   0.66719607  0.096608242 
   16600    246.50335   -4.1702172   -3.4357833    -5.156378   0.23647319   0.65849522   0.09119235 
   16700    246.59674   -4.1572849   -3.4225728   -5.1602931   0.23363739   0.67189339  0.097477462 
   16800    255.38122   -4.1695411   -3.4086564   -5.1605773   0.23644237   0.66075718  0.093836698 
   16900    254.03295     -4.15082   -3.3939524    -5.150879   0.24415926   0.66486841  0.091031311 
   17000    254.58219   -4.1373435   -3.3788395   -5.1515941   0.24803843   0.67160173   0.09461038 
   17100    256.73436   -4.1281349   -3.3632187   -5.1371394   0.24610217   0.66983866  0.093063617 
   17200    257.42723   -4.1138455   -3.3468649   -5.1464352   0.25697884   0.67872386  0.096886993 
   17300    261.93649   -4.1107293   -3.3303139   -5.1468962   0.25098115   0.68527624   0.09990943 
   17400    263.38863   -4.0986305   -3.3138885   -5.1486144   0.25831678   0.68570898   0.10595811 
   17500     269.8672   -4.1019186   -3.2978743   -5.1554833   0.26181547    0.6890557   0.10269356 
   17600    268.41464   -4.0820482   -3.2823316   -5.1433099   0.26510561    0.6857245   0.11043166 
   17700    276.87081   -4.0922943   -3.2673834   -5.1437176   0.25973575   0.68784514   0.10384247 
   17800    273.42194   -4.0680624    -3.253427   -5.1364201   0.26886668   0.69086748   0.10862354 
   17900    278.27977   -4.0698712   -3.2407624   -5.1312971   0.25574405   0.69750911   0.10817271 
   18000    280.74825   -4.0654994    -3.229036   -5.1266995   0.25138939   0.70155518   0.10825556 
   18100    285.90601   -4.0703906   -3.2185602   -5.1368709   0.26707032   0.69931307    0.1000969 
   18200    283.28776   -4.0533387   -3.2093091   -5.1305279   0.25770565   0.70760475    0.1118788 
   18300    282.73437   -4.0442034   -3.2018226   -5.1253728   0.27256156   0.70335904   0.10524872 
   18400    283.52888    -4.040639    -3.195891   -5.1193627   0.26737136   0.70385548   0.10749678 
   18500    284.95142   -4.0407365   -3.1917501   -5.1244886   0.27957743   0.70265048   0.10152424 
   18600    283.32344   -4.0335778   -3.1894418   -5.1215654   0.26199744   0.70445413   0.12153604 
   18700     286.9134   -4.0433702   -3.1885383   -5.1309812   0.27840683   0.70190082   0.10730336 
   18800    288.60278   -4.0494938   -3.1896286   -5.1354043   0.27327762   0.70173971   0.11089312 
   18900    285.00033    -4.042129   -3.1929969   -5.1241358   0.26675373   0.70270751   0.11254557 
   19000    287.15761    -4.053343   -3.1977835    -5.132817   0.26562193    0.7122146   0.10163741 
   19100     280.4349   -4.0395447   -3.2040149   -5.1183748   0.26504547   0.70373527   0.11004934 
   19200    284.59531   -4.0597993   -3.2118739   -5.1247781   0.25766797   0.70096211   0.10634875 
   19300    275.54264   -4.0421506   -3.2211969   -5.1204228   0.25514793   0.70777528   0.11534893 
   19400    279.26795   -4.0631875   -3.2311346   -5.1223041   0.25927766   0.69316046   0.10667844 
   19500    276.89368   -4.0671205   -3.2421415    -5.128296   0.26415174   0.69141111   0.10561259 
   19600    273.57194   -4.0692229   -3.2541407   -5.1240926   0.25262513    0.6969207   0.10532391 
   19700    274.98782   -4.0861244   -3.2668237   -5.1314296   0.25195442   0.69406594  0.099284806 
   19800    266.58645   -4.0742375   -3.2799679   -5.1328576   0.25806028   0.68385411   0.11670574 
   19900    267.21468   -4.0901336   -3.2939923   -5.1326272   0.24857252   0.69392477  0.099996272 
   20000    261.37582   -4.0869989   -3.3082538   -5.1368829   0.24371988    0.6956246   0.11053956 
   20100    257.82255   -4.0904432   -3.3222848     -5.12956   0.25233183   0.68199563   0.10478938 
   20200     256.3234   -4.1003284   -3.3366366   -5.1320878   0.24776978   0.68154958      0.10244 
   20300    257.35246   -4.1175757   -3.3508178    -5.146495   0.24105864   0.67731877    0.1105419 
   20400    253.97616   -4.1214343   -3.3647359   -5.1511182   0.24829382   0.68350301  0.097886987 
   20500    258.10229   -4.1476024   -3.3786106   -5.1479608   0.23715666   0.66281109   0.10039061 
   20600    251.86888   -4.1419709   -3.3915509   -5.1491787   0.24337807   0.66751336  0.096316429 
   20700    245.10048   -4.1344493   -3.4041951   -5.1462337   0.23617774   0.68101804  0.094588624 
   20800    248.57319   -4.1567026   -3.4161018   -5.1479139   0.23092569   0.66842072  0.091864944 
   20900    246.98331   -4.1630381   -3.4271743   -5.1512349   0.22891131   0.66439414  0.094891341 
   21000     240.5333   -4.1536945   -3.4370478   -5.1434025   0.23777966   0.65871714  0.093211138 
   21100    236.58371   -4.1509557   -3.4460765   -5.1527036   0.23773722   0.67189498  0.092115684 
   21200    239.96788   -4.1690461   -3.4540841   -5.1515004   0.22365238   0.67017126  0.088630665 
   21300    236.89381   -4.1666766   -3.4608734   -5.1646868   0.22993715   0.66804516   0.10002793 
   21400    239.64627   -4.1809007   -3.4668969   -5.1611838   0.23292759   0.66339673  0.083958736 
   21500    234.47803   -4.1703429   -3.4717374   -5.1601671   0.22774283   0.67155759  0.090523691 
   21600    235.45182   -4.1773079    -3.475801   -5.1623944   0.22326654   0.66927696  0.092543046 
   21700    239.65785   -4.1924712   -3.4784328    -5.158561   0.22408065    0.6495425  0.092466733 
   21800    235.34828   -4.1810861   -3.4798877    -5.161138   0.22360205   0.66628621  0.090163674 
   21900    234.26152   -4.1781247   -3.4801642    -5.156204   0.21779411   0.66510184  0.095183325 
   22000     238.9378   -4.1910137   -3.4791207   -5.1599957   0.22376499   0.65412042  0.091096618 
   22100    238.85402   -4.1884065   -3.4767631   -5.1581824   0.22150579   0.65907918  0.089190954 
   22200    236.91555   -4.1789975   -3.4731296    -5.157665   0.22461884   0.66211836  0.091930334 
   22300    238.48973   -4.1789908   -3.4684328   -5.1581587   0.23525037   0.65217769  0.091739799 
   22400    241.66392   -4.1828518   -3.4628366   -5.1574044   0.22356274   0.65082589   0.10016389 
   22500    240.64302   -4.1730524   -3.4560788   -5.1561645   0.22710833   0.66522449  0.090779263 
   22600    245.37088   -4.1794091   -3.4483493   -5.1631249   0.22843073   0.65755436  0.097730766 
   22700     245.0239    -4.169765    -3.439739   -5.1536499   0.23088587   0.66173921  0.091259806 
   22800     248.3611   -4.1701526   -3.4301838   -5.1548418   0.22808196   0.66220587  0.094401331 
   22900    253.67519   -4.1754803   -3.4196786   -5.1575064   0.23682359   0.65603494  0.089167609 
   23000    249.33142   -4.1513641   -3.4085043    -5.155525   0.23598502   0.66944268  0.098733211 
   23100    254.41153   -4.1549686   -3.3969731   -5.1557895   0.23579788   0.67209281  0.092930185 
   23200    256.60706   -4.1494324   -3.3848955   -5.1523408   0.22619663   0.67865206  0.098059672 
   23300    258.51776   -4.1424096   -3.3721799   -5.1515202   0.23240992    0.6782806  0.098420094 
   23400    265.08581   -4.1490232   -3.3592246   -5.1497869   0.24344222   0.66255102  0.094770474 
   23500    263.25026   -4.1308215   -3.3464917   -5.1420654   0.24277854   0.67016676  0.098298626 
   23600    265.28117   -4.1236584   -3.3332778   -5.1450234   0.24181025   0.67608002   0.10347472 
   23700     272.9535   -4.1337564   -3.3205167   -5.1535518   0.24784274   0.67606135   0.09589129 
   23800    262.15013   -4.0886444   -3.3075924    -5.132439   0.25344432   0.68416471   0.10618558 
   23900    272.80976   -4.1084269   -3.2956155   -5.1399549   0.25180932   0.67772294   0.10199574 
   24000    274.38563   -4.1015863   -3.2840797   -5.1454673    0.2525171   0.68623398   0.10512999 
   24100    270.14633   -4.0778117   -3.2729357    -5.136313   0.26079944   0.68755428   0.11014758 
   24200    274.78946   -4.0812794   -3.2625697   -5.1424159   0.26747338   0.69622011  0.097442934 
   24300     274.7902    -4.072405   -3.2536931   -5.1389555   0.25531242   0.69753656   0.11370152 
   24400    276.63666   -4.0696363    -3.245423   -5.1366229   0.26182952    0.6948985    0.1102586 
   24500    273.06068   -4.0516259   -3.2380669   -5.1331399   0.26511666   0.70940191    0.1069954 
   24600     275.0928   -4.0521414   -3.2325279   -5.1255935   0.26147739   0.69854785    0.1134268 
   24700    279.96718   -4.0621967   -3.2280604   -5.1318254   0.26444512   0.70375986   0.10142376 
   24800    281.70135    -4.064156    -3.224853   -5.1305769   0.26587059   0.69488463   0.10566565 
   24900    283.44486   -4.0675162   -3.2230185   -5.1309837   0.26716644   0.69376207   0.10253897 
   25000    285.76072   -4.0738976      -3.2225   -5.1298467   0.27024916   0.68059856   0.10510142 
   25100    279.81062   -4.0571124   -3.2234426   -5.1248385   0.27904897   0.68071878   0.10795831 
   25200     283.0996   -4.0696143   -3.2261453   -5.1303205   0.26895845   0.68464288   0.10710491 
   25300    273.81726    -4.045625   -3.2298118   -5.1274668   0.26562685   0.70335086   0.11286415 
   25400    275.77001   -4.0564869   -3.2348557   -5.1242918   0.26274628   0.68738628   0.11767233 
   25500    277.14148   -4.0667053   -3.2409879    -5.130042   0.27127177    0.6852012    0.1068637 
   25600    276.50237   -4.0720685   -3.2482553   -5.1388608   0.26278541   0.69880005   0.10520689 
   25700    273.96354   -4.0732589   -3.2570099   -5.1344232   0.26747587   0.68328311    0.1104053 
   25800    269.52575   -4.0692843   -3.2662573   -5.1391856   0.26536072   0.69126361   0.11327702 
   25900    272.07549   -4.0870415   -3.2764177   -5.1390894   0.26419534   0.68877194  0.099080704 
   26000    270.59837   -4.0933454   -3.2871226   -5.1368572   0.25571047   0.68538442   0.10241697 
   26100    268.69999    -4.098968   -3.2984012   -5.1364344    0.2621934   0.67696211  0.098310899 
   26200    267.05325   -4.1058329   -3.3101724    -5.134978   0.26058287   0.67169062  0.096871641 
   26300    267.12033   -4.1179896   -3.3221294   -5.1447193   0.25968664   0.67159313  0.095449898 
   26400    262.73214    -4.117172    -3.334386   -5.1409603   0.25670444   0.67299142  0.094092403 
   26500    254.37585   -4.1046501   -3.3467608   -5.1391027   0.26015717   0.67716882  0.097126583 
   26600    261.60396   -4.1383469   -3.3589222   -5.1452079   0.24710769   0.67079823  0.088955077 
   26700     251.7942   -4.1209938   -3.3707963   -5.1428873   0.24883907   0.67594372  0.097110718 
   26800    259.57498   -4.1557716    -3.382392   -5.1471741   0.23774832   0.66765045  0.086003737 
   26900    247.37583   -4.1303973    -3.393364   -5.1477237   0.24457359   0.68077827  0.091974455 
   27000    252.63035   -4.1564357    -3.403747   -5.1477651   0.23451789   0.67459501  0.082216468 
   27100    243.73335   -4.1397087   -3.4135278    -5.141904   0.23595758   0.67342635  0.092811379 
   27200    247.43408   -4.1597013   -3.4224944   -5.1555346   0.24344985   0.66939386  0.082989564 
   27300    240.71245   -4.1477873   -3.4306069   -5.1502383   0.23828071   0.67287954    0.0912907 
   27400    247.81526    -4.176477   -3.4381344   -5.1601223   0.23465729    0.6625938  0.086394223 
   27500    241.32399   -4.1637371   -3.4447347   -5.1529234    0.2241633   0.67766257  0.087360449 
   27600    244.08705   -4.1775973   -3.4503625   -5.1535191   0.22478322   0.66396795  0.087170658 
   27700    242.71334    -4.178206   -3.4550641    -5.154402   0.23228456   0.65697703  0.086934446 
   27800    244.11608   -4.1861165   -3.4587953   -5.1574099    0.2204843   0.65905217  0.091756961 
   27900    243.22183   -4.1860023   -3.4613454   -5.1574937   0.22748065   0.65954466  0.084466112 
   28000    239.12122   -4.1754133   -3.4629738   -5.1520068    0.2294835   0.65826318  0.088846783 
   28100    244.40998   -4.1918246   -3.4636277   -5.1596707    0.2221349   0.66063726  0.085073952 
   28200    238.62642   -4.1740835   -3.4631182   -5.1485892    0.2247707   0.65775899  0.091976045 
   28300     240.6197   -4.1781429   -3.4612388   -5.1517218   0.22353946   0.66074079  0.089298642 
   28400    241.69701   -4.1784786   -3.4583647   -5.1595309   0.23433246   0.65900579  0.087714133 
   28500    242.95543   -4.1785939   -3.4547307   -5.1540972   0.22317798   0.65618693  0.096138327 
   28600    244.61337     -4.17869   -3.4498872   -5.1564261    0.2172344   0.66795089  0.092550776 
   28700     246.4358   -4.1781053   -3.4438727   -5.1607682   0.22918307   0.66413553  0.089344209 
   28800    244.26549    -4.164726   -3.4369596   -5.1522077   0.22739598   0.67029905  0.089786586 
   28900    250.14204   -4.1747461    -3.429471   -5.1522099   0.22218663   0.67158403  0.083693233 
   29000    250.96009   -4.1686895   -3.4209772   -5.1541643   0.23816283   0.65709065  0.090221282 
   29100    252.83652   -4.1651465   -3.4118436   -5.1611675   0.24180152   0.66762916  0.086590265 
   29200     254.1812   -4.1595288   -3.4022195   -5.1507913   0.22966013   0.67013361  0.091468808 
   29300    258.23399   -4.1615403   -3.3921561   -5.1567537   0.24058377   0.66237321  0.092256373 
   29400    255.57835    -4.143063    -3.381591   -5.1500853   0.24362511   0.67180802    0.0915892 
   29500    258.73944   -4.1420015   -3.3711113    -5.153251   0.25088061   0.66687663  0.093492312 
   29600    260.40137   -4.1360284   -3.3601867   -5.1468193   0.24439081   0.66822317  0.098176938 
   29700    264.28242   -4.1366232   -3.3492182   -5.1475723   0.25323685   0.66888099   0.08883128 
   29800    264.84461   -4.1273698   -3.3382899   -5.1476505   0.24678171   0.67408055  0.099418432 
   29900     264.4913   -4.1156566   -3.3276293    -5.139952   0.24992623    0.6820939  0.092275321 
   30000    264.79567   -4.1062986   -3.3173645   -5.1306291   0.24480061   0.68089505   0.09863485 
   30100     260.5312   -4.0831406    -3.306912   -5.1224776   0.25505995   0.68815288  0.096124182 
   30200    271.77912   -4.1067306   -3.2969899   -5.1337121   0.25304226   0.67395859  0.099980654 
   30300    267.16579   -4.0834604   -3.2874646   -5.1256993   0.24834792   0.68780997   0.10608106 
   30400    271.30246   -4.0868686    -3.278548   -5.1280222   0.24914544   0.68602643   0.10598177 
   30500    274.77267   -4.0885968   -3.2699371   -5.1329338   0.25703071   0.68626513   0.10104116 
   30600    272.94455   -4.0754743   -3.2622613   -5.1264775   0.25079756   0.70125275  0.098952884 
   30700    277.19314   -4.0815504   -3.2556791   -5.1239037   0.24764954   0.69536353  0.099340217 
   30800     276.5495   -4.0735774   -3.2496238   -5.1338447   0.25862211    0.6969618   0.10468335 
   30900    268.86125   -4.0455946   -3.2445474   -5.1302837   0.27575719   0.70443473   0.10449719 
   31000    280.76699   -4.0775182    -3.240999   -5.1272518   0.25642517   0.68980886   0.10349956 
   31100    278.15554   -4.0670864   -3.2383478   -5.1204167   0.26273369   0.69523819  0.095358375 
   31200     269.5767    -4.039562   -3.2363832   -5.1190409   0.27117016   0.69854159   0.10976712 
   31300    281.93161   -4.0758105   -3.2358214   -5.1307244    0.2609577   0.69245405   0.10150214 
   31400    283.54504   -4.0813289   -3.2365327   -5.1323019   0.25494605   0.68997895   0.10604795 
   31500    277.69514   -4.0654735   -3.2381066   -5.1271129   0.26853765   0.69294704   0.10015468 
   31600    280.79362   -4.0776121   -3.2410135    -5.125924   0.25672596   0.68585106   0.10573488 
   31700    278.68854    -4.075622   -3.2452953   -5.1281489    0.2542006   0.69309603   0.10523028 
   31800    282.04087    -4.091056   -3.2507414   -5.1322832    0.2520161   0.68722227   0.10198887 
   31900    273.56873   -4.0718148   -3.2567421   -5.1312677   0.25821796   0.70103626   0.10019872 
   32000    276.14101   -4.0868459   -3.2641094   -5.1349686   0.25069604   0.69490059   0.10252603 
   32100    275.17879   -4.0920811   -3.2722114   -5.1337075   0.24891745   0.69358892  0.099120032 
   32200    270.04801   -4.0856791   -3.2810961   -5.1341597   0.25615845   0.69080533   0.10151686 
   32300    271.20409   -4.0984379   -3.2904104   -5.1458298   0.26237589   0.68500671   0.10000928 
   32400    260.16079   -4.0760466   -3.3009216   -5.1392129   0.25953341   0.70354295   0.10008992 
   32500    270.64965   -4.1179848   -3.3116093    -5.139518   0.24273458   0.67984619  0.098952417 
   32600    262.02414   -4.1031393   -3.3224627   -5.1518462   0.25476863   0.69302812   0.10091016 
   32700    265.77439   -4.1255798   -3.3337296   -5.1395162   0.24464436   0.67638074  0.092911306 
   32800    263.53765   -4.1302414   -3.3450554   -5.1513682   0.24221539   0.68213883  0.096772578 
   32900    263.40572     -4.14134   -3.3565471   -5.1483737   0.24332225   0.67230277  0.091408681 
   33000    258.08023   -4.1369242   -3.3679981   -5.1446525   0.23891929   0.67549093  0.093318113 
   33100    252.86523   -4.1325203   -3.3791318   -5.1498835   0.24361095   0.68179468  0.091957601 
   33200    247.81041   -4.1279006   -3.3895725   -5.1523779   0.24623328   0.68010224  0.098141803 
   33300    248.72688   -4.1408651   -3.3998064   -5.1473482   0.23928098   0.67144696  0.095755216 
   33400    248.68129   -4.1502416   -3.4093187   -5.1515454   0.24281212    0.6653409  0.093150809 
   33500    248.52323   -4.1585437   -3.4180918   -5.1579965   0.23247523    0.6726634  0.094314187 
   33600    247.59896   -4.1638053   -3.4261071   -5.1617437   0.24524449   0.66209429  0.090599666 
   33700    239.33547    -4.146892   -3.4338141   -5.1594365   0.23633083   0.68030599   0.09590775 
   33800    245.67085   -4.1725068   -3.4405533    -5.151795   0.23013832   0.66249978  0.086650065 
   33900    237.62419   -4.1540877   -3.4461084   -5.1500752   0.23330263   0.66700809  0.095676791 
   34000    244.98859   -4.1803554   -3.4504346   -5.1564204   0.23383637   0.65392888  0.088299793 
   34100    239.79726    -4.168422   -3.4539683   -5.1618155   0.23161534    0.6714045  0.090373608 
   34200    243.76697   -4.1833738   -3.4570926   -5.1547452   0.22844516   0.65606841   0.08685785 
   34300    236.99647   -4.1647895   -3.4586805   -5.1579957   0.22836705   0.67361469  0.091224454 
   34400    239.89312   -4.1740009   -3.4592616   -5.1607686   0.22816236    0.6671807  0.091424607 
   34500    238.66453   -4.1700776   -3.4589987   -5.1549386   0.22697006   0.66961899  0.088272004 
   34600    238.98788    -4.169596   -3.4575538   -5.1537049   0.22526781   0.66807609  0.090765009 
   34700    243.57092   -4.1807901   -3.4550932   -5.1570682   0.22399723   0.66574774  0.086533086 
   34800    240.74038   -4.1687057    -3.451442   -5.1516607   0.22476971   0.66224477  0.095940597 
   34900    245.73623   -4.1790716   -3.4469233   -5.1613118   0.22696271   0.66671208  0.088565364 
   35000    249.61981   -4.1851341    -3.441415   -5.1580784   0.21665369    0.6671828  0.089107827 
   35100     248.0928   -4.1739501   -3.4347806   -5.1650701   0.22385034   0.67239777  0.094871916 
   35200    253.20997   -4.1818769   -3.4274613   -5.1606285   0.22399542   0.66857341  0.086182714 
   35300     248.4472   -4.1596141   -3.4193887   -5.1549434   0.22453891   0.67277263   0.09801782 
   35400    248.19112   -4.1501648   -3.4107024   -5.1549751   0.23283888   0.67608035   0.09589104 
   35500     252.5036    -4.153797   -3.4014859   -5.1555519   0.22737959   0.67523235  0.099142981 
   35600    257.46311   -4.1587491   -3.3916616   -5.1639797   0.23241922   0.67138754   0.10142383 
   35700    257.78053   -4.1494825   -3.3814493   -5.1579184   0.23929618   0.67205488   0.09708484 
   35800    261.24076   -4.1494814   -3.3711388   -5.1607287   0.23015927   0.68299145  0.098096599 
   35900     265.1907   -4.1506018   -3.3604907   -5.1584657    0.2343827   0.67817319  0.095308031 
   36000    261.17718   -4.1279979   -3.3498447    -5.154251   0.24688806    0.6857009  0.093664122 
   36100    263.81538   -4.1255144   -3.3395009   -5.1523276   0.23721409   0.68841486   0.10118426 
   36200    267.38013    -4.125936   -3.3293017   -5.1536982   0.23950426   0.68542333   0.10283455 
   36300    270.79924   -4.1262644   -3.3194431   -5.1505274   0.24249749   0.68284099  0.098924601 
   36400    266.43224   -4.1039759   -3.3101658   -5.1491139    0.2410503   0.69289479   0.11119291 
   36500    265.52211   -4.0922421   -3.3011436   -5.1398123   0.24658742   0.69694478   0.10403804 
   36600    266.12294   -4.0854826   -3.2925939   -5.1342005   0.25188979   0.69224195   0.10458621 
   36700     265.0034   -4.0742569   -3.2847038   -5.1377391   0.25635694   0.69832393   0.10880136 
   36800    272.03847   -4.0881748   -3.2776614   -5.1339558   0.25040842   0.69629035  0.099082188 
   36900    267.81777   -4.0688302    -3.270892   -5.1335798   0.25998219   0.69589155   0.10887582 
   37000    272.11889    -4.075774    -3.265021   -5.1415455   0.26201033   0.69330982   0.11045137 
   37100    275.09957   -4.0800128   -3.2603791    -5.136386   0.26318078   0.69229018   0.10090223 
   37200    269.37714   -4.0591251   -3.2565408   -5.1330907   0.26706101    0.6999855   0.10691915 
   37300    272.99771   -4.0672384    -3.253867   -5.1266236   0.26175927   0.69191351   0.10571236 
   37400    272.62413    -4.064399   -3.2521407   -5.1261654   0.26343743    0.6905883   0.10774062 
   37500    277.98112   -4.0795908   -3.2513718   -5.1366478   0.25398968   0.68833793   0.11472939 
   37600    277.73634   -4.0790298   -3.2515401   -5.1334303   0.26372288   0.68442015    0.1062575 
   37700    272.63366   -4.0651353   -3.2528485   -5.1267361   0.26275221   0.69770883   0.10113979 
   37800    273.75944    -4.070773   -3.2551322    -5.128885   0.26459534    0.6883631   0.10515348 
   37900    274.56506   -4.0763707   -3.2583295   -5.1239144   0.25320535   0.69477015  0.099568192 
   38000    269.98033   -4.0667514   -3.2623701   -5.1239339      0.25066   0.69220381   0.11431868 
   38100    270.74918   -4.0736311    -3.266959   -5.1293093   0.25320374   0.69599784   0.10647657 
   38200    268.93616    -4.073688   -3.2724177   -5.1236941   0.25325685   0.68971828   0.10703097 
   38300    270.74263   -4.0851328   -3.2784802   -5.1317654   0.25025427   0.69073292   0.10564539 
   38400    271.45029   -4.0942591   -3.2854982   -5.1439521   0.25664758   0.68846287   0.10458256 
   38500    262.28816   -4.0744106   -3.2929473   -5.1281952   0.25887644   0.68813244   0.10677578 
   38600    270.29848   -4.1062872    -3.300958   -5.1367792   0.25585219   0.67973471  0.094905066 
   38700    266.12235    -4.102494   -3.3096072   -5.1366812   0.24145042   0.69134746   0.10138933 
   38800    264.64164    -4.106924   -3.3184487   -5.1368151   0.23850542   0.68901013   0.10237557 
   38900    259.28452   -4.0999208   -3.3274066   -5.1376764   0.25475902   0.68312894  0.099867686 
   39000    262.60673   -4.1191466   -3.3367342     -5.14065    0.2429423     0.673351   0.10521014 
   39100    259.51116   -4.1194284    -3.346239   -5.1357638   0.23904456   0.67890551  0.098385327 
   39200    260.50632   -4.1316782   -3.3555238   -5.1388581   0.22887333   0.67786636   0.10044019 
   39300    252.46543   -4.1164845   -3.3642871   -5.1436095   0.23928163   0.68775205    0.1000914 
   39400    262.49884   -4.1552323   -3.3731413   -5.1499783   0.23278642   0.66798936  0.093970239 
   39500    257.02685    -4.147788   -3.3820003   -5.1490876   0.22817744   0.67080174   0.10232047 
   39600    260.15406    -4.165465   -3.3903601    -5.157752   0.22874957   0.67275524  0.090782164 
   39700    250.59638   -4.1449236   -3.3982949   -5.1480019   0.22825027    0.6702344   0.10459368 
   39800    251.64656   -4.1551422   -3.4053846   -5.1537686   0.23074284   0.67099528  0.096888302 
   39900    253.17789   -4.1667848   -3.4124647    -5.155265   0.22329819   0.66523686   0.09994513 
   40000    251.16398   -4.1671461   -3.4188263   -5.1535812   0.23347479   0.65626822  0.096692102 
   40100    242.23336   -4.1460357   -3.4243239   -5.1497621    0.2313631   0.66843002   0.10393328 
   40200    244.50587   -4.1575163   -3.4290337   -5.1429959   0.23326434   0.66122529  0.090990024 
   40300     245.7532   -4.1648926   -3.4326937   -5.1504244   0.23218442   0.65495216  0.098395297 
   40400    245.31022   -4.1666252   -3.4357461   -5.1583878   0.23395352   0.66445701   0.09335208 
   40500    251.81189   -4.1881848   -3.4379346   -5.1636213    0.2293177    0.6546979  0.091420986 
   40600    243.92417   -4.1661322   -3.4393827    -5.158559    0.2308799   0.67012888  0.091418101 
   40700    249.27417   -4.1826245   -3.4399352   -5.1684001   0.22821164   0.66686889  0.090695004 
   40800    246.90444   -4.1757088     -3.44008   -5.1627137   0.23102774   0.66853425  0.087442916 
   40900    248.57511   -4.1797286   -3.4391221   -5.1632911   0.23402733   0.65885607  0.090679122 
   41000    247.06465   -4.1738838   -3.4377775   -5.1582061   0.23217211   0.65706726  0.095082953 
   41100    246.60167   -4.1704868     -3.43576   -5.1609257   0.23336191   0.66233749  0.094739517 
   41200    249.04252   -4.1749239   -3.4329248   -5.1635649   0.23198984   0.65840191  0.098249224 
   41300    245.24522   -4.1597589   -3.4290735   -5.1616369   0.23801984   0.66936441  0.094493785 
   41400    250.99587   -4.1726966   -3.4248777   -5.1629014   0.23768928   0.65756361   0.09495182 
   41500    248.41247   -4.1600668   -3.4199448   -5.1547185   0.23076065    0.6702437  0.093647345 
   41600    249.20642   -4.1566376   -3.4141502   -5.1593813   0.23253859   0.67296203  0.097243117 
   41700     252.0121   -4.1591305   -3.4082838   -5.1609159   0.24126432   0.66553825   0.09498285 
   41800    246.86496   -4.1372988   -3.4017876   -5.1483071   0.22878397   0.68357204  0.098652266 
   41900    252.82793   -4.1479311   -3.3946537    -5.151279   0.23814688   0.66635123  0.098849805 
   42000    258.22552   -4.1562245   -3.3868655   -5.1554312   0.23913692   0.66883608  0.091233678 
   42100     248.5359    -4.119456   -3.3789663   -5.1452469   0.24918162   0.68060246  0.096006823 
   42200    258.70255   -4.1419528   -3.3711726   -5.1469743   0.23154186   0.67819681  0.095282816 
   42300    258.85809   -4.1340053   -3.3627617   -5.1502094   0.24568943   0.66924761   0.10126702 
   42400     257.8208   -4.1223902    -3.354237   -5.1445233   0.25302348   0.67367711  0.095432546 
   42500    257.21355   -4.1120756   -3.3457317   -5.1374844   0.25356234   0.67542533  0.096421097 
   42600     261.5327   -4.1162477   -3.3370353   -5.1336366   0.24516536   0.67852327  0.093700259 
   42700     260.9144   -4.1055191   -3.3281488   -5.1319761   0.24834492   0.68285281  0.095259324 
   42800     261.7408   -4.0992893   -3.3194569    -5.143022   0.25164589   0.68505233   0.10703443 
   42900    267.26184   -4.1073165   -3.3110346   -5.1406332   0.24577162   0.68809752  0.099447621 
   43000    266.96716    -4.098114   -3.3027101   -5.1398775   0.24342847   0.69123218   0.10710287 
   43100    270.55204   -4.1008496   -3.2947648   -5.1458953   0.25200959   0.70021432   0.09282187 
   43200     269.2092   -4.0893548   -3.2872709   -5.1444126   0.25113662   0.69764253   0.10627873 
   43300    271.98514   -4.0913478   -3.2809933   -5.1437479   0.26419023   0.68783771   0.10037211 
   43400    273.12509   -4.0890416   -3.2752907   -5.1368862   0.25504738   0.69513886  0.097658332 
   43500    273.32078   -4.0845715   -3.2702375   -5.1381058   0.25281098   0.69796307   0.10276027 
   43600    273.74973   -4.0818635   -3.2662515   -5.1423674   0.26423758   0.69518146   0.10108494 
   43700     273.3859   -4.0780201   -3.2634921   -5.1260023   0.25384056   0.69383553   0.10030611 
   43800    277.19448   -4.0872766   -3.2614013    -5.139747   0.24949387   0.69505503   0.10792154 
   43900    273.90241    -4.076338   -3.2602712   -5.1360875     0.264056   0.68844767   0.10724575 
   44000    277.24534   -4.0861847   -3.2601579   -5.1366755   0.26395285   0.69111825  0.095419706 
   44100    276.87895   -4.0862177   -3.2612825   -5.1399496   0.25696365   0.68592397   0.11084431 
   44200     274.8576   -4.0821078   -3.2631951   -5.1289083   0.26288792   0.68303773   0.10087483 
   44300    277.27061    -4.092159   -3.2660569   -5.1411691   0.25898301   0.69250898  0.097518101 
   44400    271.88566   -4.0802274   -3.2701693   -5.1378144   0.25847852     0.698156   0.10095248 
   44500    278.67255   -4.1053548   -3.2750757   -5.1467077   0.25366884   0.68792305   0.09976103 
   44600    276.47205   -4.1048286   -3.2811057   -5.1449954   0.24885887     0.687587   0.10372097 
   44700    273.15433   -4.1018285   -3.2879905   -5.1405497   0.26284824   0.68539089  0.090482078 
   44800    271.66314   -4.1051111    -3.295716   -5.1461945   0.25418549   0.68389803   0.10299984 
   44900    273.71459   -4.1195145   -3.3040072   -5.1464802   0.25143271   0.67770719  0.097825772 
   45000    265.42014   -4.1035603   -3.3127656   -5.1443088   0.23876828   0.69437817   0.10760207 
   45100     268.9489   -4.1233031   -3.3219948   -5.1498892   0.25540923   0.67097093   0.10020595 
   45200    267.78724   -4.1296661   -3.3318189   -5.1497244   0.25543883   0.66755212  0.097067362 
   45300    262.63193    -4.124304   -3.3418166   -5.1547144   0.25550433   0.67482641    0.1000796 
   45400    257.93819   -4.1205965   -3.3520935   -5.1401702   0.25655801   0.67057612  0.092439598 
   45500    255.15796   -4.1221414   -3.3619219   -5.1435467   0.25681038   0.66147205   0.10312293 
   45600    251.71105   -4.1214136   -3.3714638   -5.1568666   0.26033266   0.68228335  0.092836956 
   45700    255.55055   -4.1421938   -3.3808046   -5.1510238   0.24766826    0.6654213  0.095740486 
   45800    253.21364    -4.144522   -3.3900954   -5.1526213   0.25040364   0.66174075  0.095954969 
   45900    250.83948   -4.1462989   -3.3989459   -5.1527244   0.24237861   0.66685739  0.097189498 
   46000     248.8096   -4.1482931    -3.406988   -5.1497116   0.23236471    0.6706494  0.098404395 
   46100     251.2948   -4.1631108   -3.4144012   -5.1606052   0.23472577   0.65819839   0.10457024 
   46200    248.08331    -4.160425   -3.4212838   -5.1553706   0.24244665   0.66488002   0.08761886 
   46300      248.684   -4.1687208   -3.4277898   -5.1586393   0.23429279   0.66594295  0.089682762 
   46400     246.4723   -4.1675782   -3.4332368   -5.1575698   0.22758258   0.66790337  0.094505714 
   46500    248.87284   -4.1791313   -3.4376377   -5.1634787   0.22894194   0.66280264  0.092602868 
   46600    244.53324    -4.169977   -3.4414129   -5.1609658   0.22866656   0.66409209   0.09823013 
   46700    249.24601   -4.1868705   -3.4442651   -5.1695526   0.23381915   0.65515015   0.09371281 
   46800    248.38378   -4.1863215   -3.4462851   -5.1681069   0.22859119   0.66077685  0.092417311 
   46900    243.24062    -4.172269   -3.4475561    -5.167376   0.23017804   0.66175654   0.10317244 
   47000    242.01294   -4.1692772   -3.4482221   -5.1587616   0.22835863   0.66522155  0.095904133 
   47100    243.67468   -4.1737407   -3.4477345    -5.155236   0.23292872     0.656174  0.092392655 
   47200    241.90877   -4.1672556   -3.4465108   -5.1693606   0.23174627   0.67289201  0.097466777 
   47300    249.04166   -4.1864504   -3.4444538   -5.1647799   0.22789811   0.65941636  0.091015089 
   47400    245.42908   -4.1725905   -3.4413573   -5.1678564   0.23581177   0.66550733  0.093946854 
   47500    244.97557   -4.1675882   -3.4377062   -5.1616819    0.2372137   0.66327217  0.093607788 
   47600    251.98846   -4.1844211   -3.4336448   -5.1661565   0.22474963   0.66573232  0.091253447 
   47700     251.1212   -4.1766987   -3.4285063   -5.1669278   0.23507518   0.66093197  0.094221985 
   47800    248.23518    -4.162267   -3.4226733   -5.1637795   0.24119682    0.6641774  0.096138307 
   47900     245.8493     -4.14891   -3.4164248   -5.1635385   0.24419832   0.67188911  0.098541065 
   48000    253.42768   -4.1647663   -3.4097021   -5.1621663   0.23680491   0.66790725  0.092687805 
   48100    254.71949    -4.161164   -3.4022509   -5.1686201   0.24452497   0.67087868  0.092052518 
   48200     248.5175   -4.1347806   -3.3943458   -5.1563281   0.25103507   0.67442807   0.09608437 
   48300     254.3811   -4.1439305   -3.3860256   -5.1589792   0.24506989   0.67474809  0.095230735 
   48400    252.18266   -4.1289306   -3.3775757   -5.1538036   0.24056108    0.6820113   0.10230057 
   48500    258.27257   -4.1381576   -3.3686585   -5.1614956   0.24733561   0.67944054  0.096561785 
   48600    258.15894   -4.1287707     -3.35961   -5.1596773   0.25243695   0.67561216   0.10285752 
   48700    262.89348   -4.1339139   -3.3506472   -5.1634412   0.25528759    0.6761754  0.098064341 
   48800    262.43021   -4.1238349   -3.3419484   -5.1566104    0.2473851   0.68021229   0.10517804 
   48900    262.82241   -4.1162997   -3.3332447   -5.1490701   0.24765358   0.68867209  0.096444776 
   49000    264.31258   -4.1121461   -3.3246512   -5.1533763   0.25322651   0.68334732   0.10465641 
   49100    266.98126   -4.1119479    -3.316502   -5.1482177   0.24512194   0.68954442   0.10160344 
   49200    268.80533   -4.1094888   -3.3086083   -5.1466459   0.24312846   0.68788876   0.10613982 
   49300    266.47252   -4.0949598   -3.3010297   -5.1411288   0.25225246   0.69231691   0.10159961 
   49400    270.45708   -4.0999009   -3.2940991   -5.1428317    0.2561058   0.68843659  0.098388383 
   49500    275.28318   -4.1081503   -3.2879696   -5.1488942   0.23951911   0.69671042   0.10451435 
   49600    270.76116   -4.0890249   -3.2823172   -5.1362622   0.25828326   0.68602672   0.10292728 
   49700    268.35592   -4.0768228   -3.2772812   -5.1407311   0.26135929   0.69343001   0.10911892 
   49800    273.25534   -4.0876007   -3.2734617   -5.1436155    0.2576182    0.6996073  0.098789333 
   49900    273.04696   -4.0836533   -3.2701352   -5.1502267   0.27185345   0.68600466   0.10871525 
   50000    278.59372    -4.098008   -3.2679638   -5.1426286   0.25733308   0.68459903   0.10268851 
   50100    269.92533   -4.0708442   -3.2666267   -5.1411506    0.2660137   0.70060549   0.10368721 
   50200    278.45233   -4.0958272   -3.2662043   -5.1463393   0.25815616   0.68527389     0.107082 
   50300    272.16607   -4.0777445   -3.2668509   -5.1358129   0.26058128   0.68911571   0.10837142 
   50400     275.8643   -4.0902786   -3.2683665   -5.1432236   0.25590816   0.69369953   0.10333728 
   50500    273.32466   -4.0852674   -3.2709219   -5.1454323   0.26162314   0.68340518   0.11513655 
   50600    273.28207   -4.0885575   -3.2743389   -5.1436972   0.27356232    0.6772757   0.10430169 
   50700    274.36054   -4.0958018     -3.27837   -5.1387779     0.258373   0.68035816   0.10424497 
   50800    268.55735    -4.083111   -3.2829693   -5.1371907   0.26376812   0.69253767  0.097773891 
   50900    270.44958    -4.094096   -3.2883165   -5.1421472   0.26267087   0.68500247   0.10037786 
   51000    271.22636   -4.1027469   -3.2946531   -5.1505793   0.25544077   0.69022765   0.10216397 
   51100    272.38673   -4.1129931    -3.301442    -5.144693   0.25414543   0.67352296   0.10403154 
   51200    264.24369   -4.0955642   -3.3082747   -5.1469011   0.26244771   0.68911071  0.099778423 
   51300    263.44897   -4.1008964   -3.3159747   -5.1516301   0.25750678   0.69006988   0.10315703 
   51400    264.48597    -4.112007   -3.3239956   -5.1536745   0.26023826   0.68294604  0.098483204 
   51500    260.74069    -4.108964   -3.3321112   -5.1427549   0.25785911   0.68213867   0.09379318 
   51600    260.37689   -4.1161144   -3.3403456   -5.1462985   0.25419647   0.67961921  0.096368471 
   51700    256.72668   -4.1136421   -3.3487488   -5.1380739   0.24942093   0.67610409  0.098906776 
   51800    256.98341   -4.1224121   -3.3567539   -5.1498784   0.24948032   0.68151234  0.096473614 
   51900    254.68548   -4.1239532   -3.3651414   -5.1608386   0.24960818   0.68865941   0.09861776 
   52000    257.99362   -4.1419728   -3.3733047   -5.1486862   0.24817281   0.66939434  0.089146265 
   52100    251.10133   -4.1289969   -3.3808638   -5.1549751   0.24709226   0.67926026  0.099625655 
   52200     255.5214   -4.1495144    -3.388212   -5.1511596   0.24847624   0.66481259  0.088356391 
   52300    250.11642    -4.140428   -3.3952293   -5.1571487   0.24485916   0.67249197  0.099369592 
   52400    252.34165   -4.1535188   -3.4016903   -5.1570188   0.23423085   0.67300176  0.096267352 
   52500     250.7064   -4.1548766   -3.4079201   -5.1570375    0.2365202   0.66783871  0.097802008 
   52600    249.51001   -4.1568279    -3.413436   -5.1601267   0.25101327   0.66424392  0.088041648 
   52700    250.77156   -4.1657389   -3.4185882    -5.169437   0.23086486   0.67169485   0.10113843 
   52800    249.58411   -4.1666078    -3.422995   -5.1648012    0.2285336   0.66771315   0.10194668 
   52900    248.10132   -4.1656855   -3.4264906   -5.1575996   0.23602181   0.66463124  0.091261101 
   53000    246.27423   -4.1631906   -3.4294393   -5.1575138   0.23894126   0.65684385  0.098538079 
   53100    250.25408   -4.1772921   -3.4316833   -5.1628123    0.2268481   0.66622295  0.092449118 
   53200    248.20977    -4.172572    -3.433054   -5.1713172   0.22916756   0.66965101  0.099926674 
   53300    244.81565    -4.163289   -3.4338834   -5.1683665   0.23521206   0.67202541  0.097840104 
   53400    246.68236   -4.1689104   -3.4339432    -5.171857   0.22557578    0.6788785  0.098492322 
   53500     244.3264    -4.161286   -3.4333382   -5.1615287   0.24044112   0.66712535  0.092676188 
   53600    244.76799   -4.1613014   -3.4320378   -5.1613921   0.22469563   0.67184957   0.10354547 
   53700    243.09255   -4.1540969   -3.4298252   -5.1556456   0.23843629   0.66634623  0.096766145 
   53800    243.31364    -4.151799   -3.4268686   -5.1581546   0.24308184   0.66308998    0.1001837 
   53900    246.49931    -4.157858   -3.4234361   -5.1592051   0.23364177   0.66965181  0.098053544 
   54000    245.29572   -4.1499497   -3.4191138   -5.1531494   0.23288098   0.67499426  0.095324534 
   54100    249.15413   -4.1562149   -3.4138833   -5.1565661   0.24235331   0.66910849  0.088889342 
   54200     250.8403    -4.155516   -3.4081606   -5.1605831   0.23837083   0.67248894  0.094207376 
   54300    250.42047   -4.1479167   -3.4018121   -5.1592763     0.235367   0.67923645  0.096756139 
   54400    254.06034   -4.1520554   -3.3951061    -5.156845   0.23944824   0.67259843  0.092742968 
   54500    257.29517    -4.154437   -3.3878499    -5.162094   0.24497685   0.66876719  0.093912993 
   54600    253.52036   -4.1354997   -3.3801593   -5.1572038   0.24603638   0.67970787  0.095959844 
   54700    262.38543   -4.1541652   -3.3724121   -5.1602452   0.24098779   0.67111349  0.093978777 
   54800    254.89918   -4.1240422   -3.3645938   -5.1534289   0.25063566   0.67902765  0.099723327 
   54900    258.25616   -4.1262744   -3.3568242   -5.1577587   0.24657127   0.68253093   0.10238209 
   55000    263.46049   -4.1338611    -3.348905   -5.1442527   0.24689883   0.66960333  0.093889437 
   55100    257.96757   -4.1091832   -3.3405927   -5.1522838   0.25436958   0.68491025   0.10382072 
   55200    267.90745    -4.131032   -3.3328265   -5.1512918   0.24421964   0.67736118  0.098678982 
   55300     272.4278   -4.1368727   -3.3251993   -5.1555515   0.23388425   0.68650261  0.098291935 
   55400    262.81499    -4.100692    -3.317659   -5.1494192   0.25956235   0.68463882    0.1045261 
   55500    266.37224   -4.1043079   -3.3106765   -5.1450708   0.25276565    0.6883826  0.099614645 
   55600    270.43137   -4.1101133   -3.3043881   -5.1522933   0.25273416   0.68932981   0.10011611 
   55700     268.6121   -4.0989062   -3.2986014   -5.1440262    0.2459012   0.69121063   0.10800817 
   55800     272.0248   -4.1035786   -3.2931059   -5.1529411   0.26212686   0.69061201  0.096623611 
   55900    271.50523   -4.0973355   -3.2884108   -5.1475536   0.25367814   0.68745082   0.10908922 
   56000    273.78307   -4.1001355   -3.2844242   -5.1375943   0.24785809   0.69280453  0.096796166 
   56100    267.69483   -4.0788573   -3.2812853   -5.1302569   0.25563352   0.69134507   0.10442109 
   56200    275.82144   -4.1005884    -3.278804   -5.1463748   0.24935772   0.69049143   0.10593725 
   56300    275.29047   -4.0975984    -3.277396   -5.1444165   0.25745226   0.68320034   0.10616545 
   56400    272.01247   -4.0866826   -3.2762467    -5.139577   0.25674139   0.69357873   0.10257424 
   56500    268.00809   -4.0745377   -3.2760325   -5.1405387   0.26477375   0.68409136   0.11713587 
   56600    274.49502   -4.0945402   -3.2767077   -5.1427426   0.25094864   0.69476506    0.1024887 
   56700    273.84772   -4.0941226   -3.2782187   -5.1459823   0.25759741   0.68769909   0.10656317 
   56800    270.88501   -4.0874051   -3.2803283   -5.1344097   0.25380297   0.69209508    0.1011065 
   56900    268.09606   -4.0817609   -3.2829935       -5.136   0.24935776   0.70425159   0.10062974 
   57000    275.79671   -4.1082368    -3.286526   -5.1490998   0.24734331   0.69131262   0.10220708 
   57100    272.19799   -4.1018246   -3.2908359   -5.1433104     0.246313   0.69661389  0.098558887 
   57200    266.86156   -4.0909035   -3.2958142   -5.1362276   0.23928333   0.70722853  0.098812237 
   57300    263.99902   -4.0875981   -3.3010375    -5.130053   0.24896692   0.68263132   0.11085657 
   57400    266.72805   -4.1013267   -3.3066352   -5.1418405   0.25143551   0.69115472  0.097923585 
   57500    266.87112   -4.1079846   -3.3128668   -5.1371348   0.23258669   0.69213077   0.10443273 
   57600    265.56483   -4.1102586   -3.3190328   -5.1498311   0.25491692   0.68719834  0.097457295 
   57700    268.64544   -4.1262168   -3.3258126   -5.1523593    0.2534866    0.6771532  0.095502645 
   57800     265.9896   -4.1255344   -3.3330431    -5.159017   0.25469341   0.67772955   0.10105957 
   57900    263.10072   -4.1249981   -3.3411139   -5.1559456   0.24524632   0.68086809   0.10483314 
   58000    265.39889   -4.1397294    -3.348998   -5.1624788   0.24451337   0.67866865  0.099567433 
   58100    258.35969   -4.1267881   -3.3570294   -5.1567295   0.24814784    0.6806106   0.10118292 
   58200    257.08927   -4.1310363   -3.3650627   -5.1492597    0.2443759   0.67312176   0.10072567 
   58300    260.45705   -4.1491911   -3.3731835   -5.1597688   0.24434608   0.67329791  0.092933719 
   58400    262.43697   -4.1631473   -3.3812406   -5.1656545   0.23098182   0.67328454  0.098240909 
   58500    259.01986    -4.160817   -3.3890913    -5.157235   0.22827444   0.66684972   0.10129383 
   58600    253.39662   -4.1517589   -3.3967871   -5.1631717   0.23840438   0.67582646  0.097181948 
   58700    254.99612   -4.1637224   -3.4039851   -5.1594405   0.23218193   0.66600436  0.097531822 
   58800    251.88288   -4.1611983   -3.4107366   -5.1574561   0.22413402   0.67249806  0.099625628 
   58900    249.64794   -4.1605295   -3.4167266   -5.1621906   0.23103253   0.66837834   0.10225022 
   59000    250.20696   -4.1676322   -3.4221638   -5.1580143   0.23490476    0.6589177   0.09655961 
   59100    250.64371   -4.1736997     -3.42693   -5.1768363   0.23525465   0.67318419  0.094697832 
   59200    248.91743   -4.1730121   -3.4313857   -5.1657935    0.2263644   0.67445542  0.091961583 
   59300    250.42892    -4.181343   -3.4352133   -5.1699158    0.2255969   0.67365023  0.089325654 
   59400     244.8391   -4.1677161   -3.4382407   -5.1624719   0.23464484   0.66891321  0.091197716 
   59500    244.81454   -4.1698277   -3.4404254   -5.1630335   0.22864054   0.67511882  0.089446457 
   59600    251.54568   -4.1916736   -3.4422165    -5.160817   0.22369648    0.6524963  0.092950633 
   59700    249.62174   -4.1866755   -3.4429507   -5.1676338    0.2244362   0.65980679  0.096715334 
   59800    249.67772    -4.186565   -3.4426734   -5.1651745   0.22409289   0.66806322  0.086453341 
   59900    249.76312   -4.1858976   -3.4417515   -5.1717231   0.23151908   0.66223259  0.092073767 
   60000    248.14372   -4.1796842    -3.440363   -5.1619026   0.22510571   0.65765585  0.099456833 
   60100    251.21407   -4.1865567   -3.4380877   -5.1668022   0.22181377   0.66743683  0.090994867 
   60200     246.2148   -4.1686319   -3.4350577    -5.169421     0.231129   0.67131365  0.098346502 
   60300     251.2878     -4.18023   -3.4315412   -5.1588267   0.21317352   0.67521856  0.090204697 
   60400    250.63236   -4.1738014   -3.4270655   -5.1642764   0.23232117   0.66811218  0.090041644 
   60500    248.30459   -4.1618325    -3.422032   -5.1630901   0.23375714   0.67220385  0.095296576 
   60600     255.3918   -4.1773928   -3.4164766   -5.1672985   0.22974848    0.6669653  0.093191836 
   60700     249.9817   -4.1552773     -3.41048   -5.1653157   0.23156148   0.68020164  0.098275272 
   60800    252.00286   -4.1547801   -3.4039609   -5.1666556   0.23535414   0.67888144  0.097639931 
   60900    255.73243   -4.1590421    -3.397111    -5.164552   0.23491549   0.67320284  0.097391643 
   61000    254.53943   -4.1484707   -3.3900941   -5.1573048   0.24261255   0.67266403  0.093557523 
   61100    256.85949   -4.1479715   -3.3826825   -5.1595932   0.23254147   0.67940129   0.09967894 
   61200    261.00168   -4.1527332   -3.3751028   -5.1621602   0.23784059   0.67366495  0.097921552 
   61300    262.49201   -4.1495855   -3.3675149   -5.1608549   0.23384896   0.67618251   0.10123794 
   61400    263.09953   -4.1437349   -3.3598542    -5.163279   0.24071387   0.68154251  0.097287775 
   61500    263.55709    -4.137775   -3.3525311   -5.1582349    0.2331225   0.68266777   0.10466962 
   61600    264.34613   -4.1325388    -3.344944   -5.1625859   0.23316751   0.69426473   0.10261487 
   61700    266.62167   -4.1318748   -3.3375002   -5.1660365   0.24675444   0.68379475    0.1036126 
   61800    265.35059   -4.1212558   -3.3306683   -5.1587324    0.2427879     0.687387   0.10730168 
   61900    268.15676   -4.1233806   -3.3244323   -5.1580558   0.24316958   0.68699095   0.10451475 
   62000    268.74341   -4.1195673   -3.3188713   -5.1615286   0.23803059   0.69695601   0.10697467 
   62100    271.50444   -4.1226044   -3.3136821   -5.1540376   0.24458893   0.68992282  0.096921453 
   62200    268.87939    -4.110199   -3.3090978   -5.1556129   0.24973765   0.69349362   0.10218256 
   62300    271.31464   -4.1137546   -3.3053977   -5.1486738   0.23102364   0.69939147   0.10450414 
   62400    272.20918   -4.1129336   -3.3019116   -5.1554317   0.25157706   0.68682774   0.10409328 
   62500    268.64218   -4.0998309   -3.2994364   -5.1508329   0.24948043   0.69027365   0.11124793 
   62600    268.97813   -4.0992214    -3.297826   -5.1521901   0.25096252   0.69388666   0.10811958 
   62700    268.49409   -4.0966354   -3.2966821   -5.1429251   0.24783049   0.69263866   0.10582058 
   62800    273.36432   -4.1104901   -3.2960264   -5.1501833   0.24449962   0.69256968   0.10262386 
   62900    270.94887   -4.1033709   -3.2961038    -5.145402   0.23726807   0.69478407   0.10997902 
   63000    276.44097   -4.1205306   -3.2969003   -5.1562206    0.2356252   0.69366018   0.10640464 
   63100    272.36815   -4.1098795   -3.2983838   -5.1513819    0.2488051   0.68238043   0.11031694 
   63200    273.85737   -4.1165976   -3.3006649   -5.1476405   0.24299185   0.68573498   0.10231615 
   63300    271.16535   -4.1115742   -3.3036622   -5.1570609   0.24128932   0.69561268   0.10858468 
   63400    270.81094    -4.113945   -3.3070889   -5.1521448   0.24918237   0.68388781   0.10512959 
   63500    277.77152   -4.1387313   -3.3111368   -5.1594426   0.24110314   0.67592208    0.1036861 
   63600    268.41214   -4.1156419   -3.3159328   -5.1555567   0.23706571    0.6903218   0.11252734 
   63700    270.01748    -4.126037   -3.3215449   -5.1530603   0.24446692   0.68149935   0.10105711 
   63800     271.0753   -4.1347578   -3.3271141    -5.154325   0.22607284   0.69156486   0.10192944 
   63900     261.2722   -4.1116243    -3.333188   -5.1456831   0.23777508   0.68956447    0.1067192 
   64000     266.2828   -4.1326777   -3.3393128   -5.1466281   0.23787456   0.67963184  0.096443947 
   64100    272.99823   -4.1588099    -3.345437   -5.1634173   0.24155405   0.66389933  0.099154036 
   64200    263.10424   -4.1358477    -3.351953   -5.1535453    0.2400976   0.67301444   0.10458562 
   64300    262.41836   -4.1401013   -3.3582501   -5.1665504   0.23693934   0.68340379   0.10610601 
   64400    263.11057   -4.1489914   -3.3650778   -5.1633489   0.23622269   0.67541794    0.1027169 
   64500     258.2492   -4.1409729   -3.3715434   -5.1566562   0.23230958   0.68164842   0.10172528 
   64600    254.94402   -4.1372058   -3.3776237   -5.1422506   0.23078267   0.67213401   0.10212807 
   64700    260.20489   -4.1586977   -3.3834413   -5.1643243   0.22945109   0.67384975   0.10232578 
   64800     259.7457   -4.1630149   -3.3891266   -5.1712527   0.22206905   0.67952664    0.1066421 
   64900    254.79196   -4.1533533   -3.3942243   -5.1568533   0.23641413   0.66899769  0.098088152 
   65000    254.02064   -4.1558726   -3.3990416   -5.1602399   0.23381104   0.66970731   0.10084898 
   65100    253.62964   -4.1591864   -3.4035204   -5.1660492   0.23047668   0.67959668  0.096789449 
   65200    254.35684   -4.1656863   -3.4078536   -5.1649956   0.22874915   0.68138304  0.089177141 
   65300    252.92536   -4.1652083   -3.4116406   -5.1628395   0.23078279   0.67141355  0.095434858 
   65400    250.01273   -4.1598073   -3.4149176    -5.159354   0.22791229   0.67602998  0.095604379 
   65500    247.13956   -4.1539139   -3.4175845   -5.1586312   0.22772391   0.67537233   0.10162105 
   65600    254.71428   -4.1786344   -3.4197369   -5.1560959   0.22353018   0.66240869  0.091522599 
   65700    249.08208   -4.1629643   -3.4208473   -5.1562531   0.22296275   0.67315931  0.097166814 
   65800    253.87078     -4.17783   -3.4214456   -5.1664654   0.22754904   0.66280754  0.098278754 
   65900    254.19539   -4.1787319   -3.4213803   -5.1623261   0.22733411   0.66646519  0.089794882 
   66000    247.08709   -4.1572368   -3.4210638   -5.1607001    0.2270703   0.67544786    0.1009451 
   66100    252.30061   -4.1717552    -3.420049   -5.1621058    0.2221215   0.67048309  0.097746026 
   66200    251.02311   -4.1662241   -3.4183241   -5.1506123   0.21919401     0.672586  0.092608196 
   66300    249.88277   -4.1603027   -3.4158001   -5.1655421   0.22616106   0.68137999    0.0976984 
   66400    252.81615   -4.1661493    -3.412907   -5.1606281   0.22151347   0.67409703  0.098868292 
   66500    253.58791   -4.1649126   -3.4093709   -5.1545137   0.22313739   0.67445543  0.092008278 
   66600    256.21584   -4.1685771   -3.4052057   -5.1678076   0.23017431   0.67084203  0.098214149 
   66700    252.98864   -4.1548638   -3.4011076   -5.1568924   0.22466255   0.68358772  0.093778348 
   66800    252.92709   -4.1498758    -3.396303   -5.1556056   0.23282329   0.67356433  0.099342164 
   66900    253.23289   -4.1456125   -3.3911286   -5.1621823   0.23461564   0.68520278  0.096751426 
   67000    254.96509   -4.1452524   -3.3856075   -5.1535042   0.23174854   0.68004014  0.096463182 
   67100      255.662    -4.141678   -3.3799568   -5.1558514    0.2319845   0.68469172  0.097497128 
   67200    258.44382   -4.1438146   -3.3738052   -5.1561723   0.22919786   0.68669734  0.096462459 
   67300     259.5103   -4.1411146   -3.3679278   -5.1654895   0.23669644   0.68836887  0.099309507 
   67400    264.52999   -4.1500095    -3.361867   -5.1632442   0.23471892   0.68155076  0.096965009 
   67500    259.77097   -4.1297158   -3.3557523   -5.1628695   0.23453503   0.69677836   0.10184031 
   67600    264.80516   -4.1386287   -3.3496662   -5.1583201    0.2414531   0.67858778  0.099650554 
   67700    266.07181   -4.1366792   -3.3439429   -5.1567395   0.23272596    0.6876676  0.099666754 
   67800      264.935   -4.1276852   -3.3383359   -5.1556554   0.23520342   0.69169965   0.10106719 
   67900    272.69657   -4.1455631   -3.3330889   -5.1617517   0.23057213   0.68721369  0.098402778 
   68000    265.75238   -4.1197532   -3.3279686   -5.1591514   0.24897713   0.68610339   0.10431773 
   68100    265.86316   -4.1160761   -3.3239614   -5.1473797   0.23594139   0.69493889   0.10042335 
   68200    266.06227   -4.1126939    -3.319986   -5.1553531   0.23829008   0.69469652   0.10967263 
   68300    264.58474   -4.1049591   -3.3166534    -5.149212   0.24868986   0.69006848   0.10549455 
   68400    264.20127   -4.1008343   -3.3136711   -5.1534187   0.23662663   0.70134573   0.11461204 
   68500    271.63808   -4.1206434    -3.311323   -5.1456065   0.24324655   0.68097218   0.10074431 
   68600    266.93395   -4.1044115   -3.3091065   -5.1561307     0.249682   0.68859131   0.11344587 
   68700     265.8616    -4.100168    -3.308058   -5.1512363   0.24204364   0.69651968     0.112505 
   68800    266.96375    -4.102506   -3.3071122   -5.1432311   0.23177342    0.6937268    0.1152249 
   68900    260.51174   -4.0828395   -3.3066689   -5.1473881   0.25458135   0.69860622   0.11136096 
   69000    267.78416   -4.1048086   -3.3069705   -5.1489673   0.24378137   0.69559491   0.10478241 
   69100    267.40755   -4.1045559   -3.3078399    -5.146176   0.23851006   0.69293193   0.11017813 
   69200    266.32398   -4.1025444   -3.3090567   -5.1373498   0.23184258   0.69280186   0.11016097 
   69300    263.04351   -4.0944947    -3.310781   -5.1412121   0.24666509    0.6906852   0.10936708 
   69400    265.66344   -4.1044637   -3.3129441   -5.1405188   0.23153953   0.69472644   0.10978913 
   69500    266.66212   -4.1102208   -3.3157258   -5.1431586   0.24012946    0.6855004   0.10730795 
   69600    257.59694   -4.0861651   -3.3186789    -5.136907   0.24929633   0.69242436   0.10902118 
   69700    261.66843   -4.1015383   -3.3219214    -5.137352   0.24119431   0.69205454   0.10256488 
   69800    262.38638   -4.1071842   -3.3254283   -5.1360383   0.23243149   0.69094395   0.10547863 
   69900    265.55946   -4.1205446   -3.3293348   -5.1470223   0.23885298    0.6866331   0.10099156 
   70000    259.20275   -4.1056351   -3.3333645    -5.154696   0.24181301   0.69919651   0.10805141 
   70100    263.52228   -4.1228942    -3.337754   -5.1438181   0.23230057   0.68679675    0.1018266 
   70200    262.13349   -4.1233671   -3.3423646   -5.1489446   0.23705929   0.68132609   0.10719215 
   70300    260.10018   -4.1221574    -3.347213    -5.151584   0.22687751   0.69713668   0.10541246 
   70400    264.36435   -4.1399511    -3.352302   -5.1496403   0.22903808   0.68346699  0.097184152 
   70500    251.83324   -4.1071886   -3.3568748   -5.1370683   0.24048775   0.68803892   0.10135306 
   70600    265.27061   -4.1522101   -3.3618609    -5.154167   0.23141832   0.67973309  0.090805487 
   70700    260.87935   -4.1437461   -3.3664802   -5.1542498   0.22766801   0.68198107    0.1008547 
   70800    259.72171   -4.1447571   -3.3709403   -5.1589533   0.23246783   0.68423329  0.097495071 
   70900    258.62706   -4.1460576   -3.3755022   -5.1459938   0.23543879    0.6676821  0.096815318 
   71000    255.15192   -4.1401592   -3.3799577   -5.1576865   0.23180223   0.68581596   0.09990908 
   71100    256.25384   -4.1477774   -3.3842928   -5.1435249   0.21909638    0.6806938  0.095957328 
   71200    254.67187   -4.1466806   -3.3879094   -5.1549287   0.23253672   0.68008683  0.095624538 
   71300    253.17073   -4.1455854   -3.3912867   -5.1566689   0.22882115   0.67935804   0.10290432 
   71400    260.57574   -4.1708257   -3.3944644   -5.1535043   0.21622035   0.67895089  0.087507352 
   71500    249.79296   -4.1413562   -3.3971212   -5.1550395   0.23148882   0.67893722   0.10325727 
   71600      249.583   -4.1430653   -3.3994559   -5.1475207    0.2357258   0.67539912  0.093330457 
   71700    254.83702   -4.1605622   -3.4012989   -5.1556428     0.230239   0.66862749  0.096214083 
   71800    250.52015   -4.1489525   -3.4025509   -5.1551817   0.23383551   0.67527572  0.097117925 
   71900    246.72572   -4.1385136   -3.4034171    -5.155506   0.23755783   0.68291319   0.09652146 
   72000    257.21131    -4.170531   -3.4041938   -5.1515043     0.224636    0.6720705  0.084266787 
   72100    253.31017   -4.1588534   -3.4041392   -5.1621513   0.22637417   0.67830628  0.098617424 
   72200     251.5064   -4.1531689   -3.4038289   -5.1515055   0.22513401   0.68043009  0.092772559 
   72300    249.45462   -4.1461343   -3.4029074   -5.1569113   0.23005794   0.68354282  0.097176236 
   72400    251.91267    -4.152259   -3.4017086   -5.1557745    0.2221273   0.68058319   0.10080499 
   72500    257.65912   -4.1678027   -3.4001313   -5.1562537   0.22048019   0.67540903  0.092561735 
   72600    252.83376   -4.1511336   -3.3978388   -5.1531915   0.23999823   0.66916395  0.092895692 
   72700    251.14541   -4.1433833   -3.3951188   -5.1492815   0.23897047    0.6676513  0.099276417 
   72800    252.49843   -4.1443685   -3.3920728   -5.1538657   0.22555303   0.68503252  0.098911691 
   72900    252.86347   -4.1417847   -3.3884014   -5.1587984   0.23576503   0.67803976   0.10320893 
   73000    252.27362   -4.1360905   -3.3844647   -5.1448642   0.24443131    0.6705181  0.093824295 
   73100    254.39437   -4.1382187   -3.3802743   -5.1534682    0.2399314   0.67355669   0.10176137 
   73200    253.54328   -4.1312821   -3.3758734   -5.1463063   0.24254895   0.67884554  0.093629639 
   73300    252.68796   -4.1239128   -3.3710525   -5.1467544   0.24090286   0.67897878   0.10295987 
   73400    257.98841    -4.134594   -3.3659414   -5.1468465   0.23681302   0.67626487  0.099174663 
   73500    256.89153   -4.1262919   -3.3609074   -5.1577273   0.24419582    0.6894617  0.097777818 
   73600    261.04174   -4.1332537    -3.355504   -5.1459889   0.23199442   0.67306924   0.10767157 
   73700    258.61038    -4.120983   -3.3504774   -5.1469079   0.23990121    0.6870441  0.098979601 
   73800    259.79154   -4.1192311   -3.3452063   -5.1432568   0.24096617   0.68150465   0.10155484 
   73900    262.44669   -4.1218867   -3.3399511   -5.1425867     0.240848   0.68281013   0.09704191 
   74000    257.31125   -4.1016556   -3.3350206   -5.1376842   0.24188311   0.69412139   0.10002413 
   74100    261.64839   -4.1096129   -3.3300558   -5.1395552   0.23539467   0.69614323  0.098404468 
   74200    260.43574   -4.1011421    -3.325198   -5.1361839   0.25196549   0.68022702   0.10284922 
   74300    265.32696   -4.1111512   -3.3206341   -5.1422328   0.25346744   0.68058278   0.09703138 
   74400    266.71146   -4.1108104   -3.3161683   -5.1437849   0.23930839   0.68751852   0.10614758 
   74500    265.63902   -4.1034682   -3.3120213   -5.1495494   0.25028293   0.69269881    0.1030995 
   74600    268.40679   -4.1081585   -3.3084653   -5.1506969    0.2512816   0.68565085   0.10560597 
   74700    268.37959   -4.1052348   -3.3056227    -5.140439   0.23636215   0.69399892   0.10484312 
   74800    266.99484   -4.0988545   -3.3033681   -5.1429504    0.2500297   0.69030165   0.10376459 
   74900    265.06216   -4.0910682   -3.3013401   -5.1358295   0.24640454   0.69445745   0.10389926 
   75000    272.46873   -4.1119969   -3.3002016   -5.1408295   0.23300284   0.69580195   0.10002784 
   75100    267.26332   -4.0954614   -3.2991751    -5.140751   0.25634539   0.69050477  0.098439456 
   75200    268.65034   -4.0995009   -3.2990821   -5.1400905   0.24724885    0.6921631   0.10117768 
   75300    270.44404   -4.1052386   -3.2994757   -5.1405541    0.2417284   0.69278125   0.10080578 
   75400    269.00574   -4.1019644   -3.3004867   -5.1469823   0.24692688   0.69439933   0.10369177 
   75500    270.29436   -4.1075654   -3.3022484   -5.1459444   0.24268238   0.69243766   0.10325893 
   75600    273.83431   -4.1204042   -3.3045403   -5.1518323   0.24380142   0.68874027  0.098886408 
   75700    265.13129   -4.0975881    -3.307654   -5.1425608   0.24234412   0.69458541   0.10804317 
   75800    268.42005   -4.1112671   -3.3115344   -5.1389997   0.23622935   0.68987123   0.10163202 
   75900    259.26898   -4.0874731   -3.3150052   -5.1441961   0.25392104   0.69961311   0.10318881 
   76000    263.61391   -4.1050209   -3.3196077   -5.1402487   0.25141366   0.68405059  0.099763537 
   76100    264.59102   -4.1128189   -3.3244944   -5.1441741   0.23320789   0.69352337   0.10462397 
   76200    258.58593   -4.0998862   -3.3294534   -5.1461206   0.24720591   0.69777761   0.10125089 
   76300    264.77183   -4.1235412    -3.334678   -5.1451669    0.2380328   0.68441907  0.099173812 
   76400    257.42719   -4.1070367   -3.3400563   -5.1403772   0.23997483   0.69407102  0.099294609 
   76500    264.57975   -4.1334934   -3.3452025   -5.1533419    0.2362514   0.68469229  0.098904858 
   76600    264.67885   -4.1394711    -3.350885   -5.1564655   0.23155623   0.68519634   0.10024186 
   76700    253.40166   -4.1115888   -3.3566021   -5.1452403   0.23820639   0.69190541   0.10353966 
   76800    260.46906   -4.1382159   -3.3621725   -5.1468811   0.22577339   0.68435437  0.098537457 
   76900    254.05125   -4.1241568   -3.3672346   -5.1386167   0.23334783   0.67564821   0.10546387 
   77000    259.58223   -4.1458269   -3.3724257   -5.1531069   0.23005154   0.67974414  0.097484312 
   77100    253.84882   -4.1333848   -3.3770657   -5.1398654   0.23056139   0.67597121  0.099947988 
   77200    261.53066   -4.1608095   -3.3816031   -5.1559108   0.22617993   0.66983445  0.099086961 
   77300    254.55384   -4.1443085    -3.385889   -5.1471236   0.22942611   0.67715708  0.096231847 
   77400    251.33321   -4.1388028   -3.3899788   -5.1490726   0.22728012   0.68378027  0.099209348 
   77500    253.73228   -4.1497947   -3.3938229   -5.1584333   0.23007641   0.67939725  0.099164897 
   77600    251.59198   -4.1468506   -3.3972556   -5.1503393   0.22809415   0.67958831   0.09580628 
   77700    252.66634   -4.1528532   -3.4000573   -5.1537077   0.22938431   0.67807278  0.093397362 
   77800    248.34224   -4.1425005   -3.4025878   -5.1540806   0.23040543   0.68192743  0.099247298 
   77900     251.3986   -4.1535075   -3.4044887   -5.1576683   0.23059091   0.67975585  0.093814059 
   78000    244.20873   -4.1336802   -3.4060829   -5.1472902   0.23668686   0.68107426  0.095848952 
   78100    250.71369   -4.1543155   -3.4073373   -5.1499435   0.22458178   0.67325026  0.097795972 
   78200    253.30084   -4.1625756   -3.4078892   -5.1595556   0.22754317   0.67600905  0.093427881 
   78300    250.54787    -4.154344   -3.4078598   -5.1560582   0.23368811   0.67347407  0.094552055 
   78400    248.11157    -4.146633   -3.4074076   -5.1532191   0.23595275   0.67249366  0.098139618 
   78500     253.7696   -4.1629349   -3.4068519   -5.1527131   0.22886569   0.66417746  0.096735044 
   78600    252.82326   -4.1588531   -3.4055897   -5.1541717   0.23529209   0.66580893  0.094217534 
   78700    246.82954   -4.1389014   -3.4034957   -5.1529568   0.24719868   0.67106945  0.095787238 
   78800    253.05259   -4.1554235   -3.4014767   -5.1549557   0.23168783   0.66923731  0.098607066 
   78900    250.43072   -4.1452669   -3.3991318   -5.1505671   0.24026803    0.6663347  0.098697433 
   79000     252.7404   -4.1487353   -3.3957187   -5.1488581   0.23555079    0.6682965  0.096275496 
   79100    256.42346   -4.1559293   -3.3919393    -5.161256   0.24346114   0.66713248   0.09473318 
   79200    257.49378   -4.1550978    -3.387919   -5.1670164   0.24940981   0.66558095  0.096927865 
   79300    257.61753   -4.1515496    -3.384002   -5.1570363   0.23376997   0.67236044  0.099356312 
   79400     253.4661   -4.1347246   -3.3795458   -5.1494575   0.23314858   0.68031996   0.10126438 
   79500    256.46356   -4.1389844    -3.374875   -5.1548588    0.2440098   0.67703582  0.094828742 
   79600     260.2231   -4.1458855   -3.3705749   -5.1559145   0.24612399   0.66852886   0.09537609 
   79700    261.91171   -4.1463887    -3.366047   -5.1476744   0.23239302   0.67466809  0.094224587 
   79800    259.45754   -4.1342715   -3.3612418   -5.1523223   0.24790268   0.67121123  0.098936846 
   79900    261.21677   -4.1347878   -3.3565167   -5.1452514   0.24508061   0.67120168  0.094181267 
   80000    262.47547   -4.1337808   -3.3517595   -5.1462434   0.24396094   0.67164148  0.096860142 
   80100    266.03452   -4.1396967   -3.3470715   -5.1462094   0.23797235   0.67228668  0.096253707 
   80200     263.8151   -4.1281856   -3.3421729   -5.1549493   0.25904702   0.66962269  0.098094074 
   80300    264.72056   -4.1261947   -3.3374843   -5.1518538   0.24882197   0.67651893   0.10031825 
   80400    268.88723   -4.1344057   -3.3332812   -5.1479362    0.2426877    0.6737614   0.09708136 
   80500    264.61376   -4.1174047   -3.3290125   -5.1472512   0.25258871   0.68121048  0.096047251 
   80600    264.48971    -4.113328   -3.3253054   -5.1409714   0.24232111   0.67905297   0.10626936 
   80700    263.17969   -4.1060406   -3.3219211   -5.1392624   0.24982034    0.6816523    0.1017491 
   80800    269.48744   -4.1215906   -3.3186777   -5.1503293   0.25178856   0.67823809  0.098712044 
   80900    263.15754   -4.1003793   -3.3163258   -5.1432954   0.24604966   0.68832027   0.10854619 
   81000    270.95292   -4.1216353   -3.3143562   -5.1461293   0.24306098   0.67934462   0.10208843 
   81100    260.04202   -4.0872368   -3.3124658   -5.1445775   0.25328693   0.69902986   0.10502382 
   81200    267.42171   -4.1080019   -3.3112436   -5.1454684   0.24541894   0.69185546   0.10019218 
   81300    268.30816   -4.1100654   -3.3106661   -5.1556081   0.25099859   0.68940791   0.10513614 
   81400    261.51309   -4.0895438   -3.3103898   -5.1463858   0.25604238   0.69867638    0.1021233 
   81500    264.81635   -4.0994692   -3.3104735   -5.1470998   0.25999664   0.68506406    0.1025699 
   81600    260.21976   -4.0866805   -3.3113798   -5.1403143   0.24939793   0.69589272   0.10834312 
   81700     262.2558   -4.0939639   -3.3125971   -5.1370189    0.2423002   0.69640128   0.10435347 
   81800    265.87527   -4.1061666   -3.3140159   -5.1540121   0.24731209   0.69715822   0.10337525 
   81900      263.123   -4.1000038   -3.3160532   -5.1459377   0.25362299   0.68891588   0.10339496 
   82000    266.92916   -4.1137435   -3.3184528   -5.1430154   0.24416382   0.68898432   0.09612376 
   82100    263.67802   -4.1065191   -3.3209148   -5.1383294   0.24480612   0.68641388   0.10059033 
   82200    258.32793   -4.0932207   -3.3235566   -5.1429657    0.2505281    0.6884424   0.11077443 
   82300    263.81364   -4.1126096   -3.3266013   -5.1482689   0.24685544   0.68859508   0.10020879 
   82400    264.82042   -4.1189986   -3.3299907   -5.1506682   0.25085618   0.67838737   0.10242608 
   82500    260.90767   -4.1108373   -3.3334871   -5.1486208   0.25098258   0.67813609   0.10866485 
   82600     266.0027   -4.1297646   -3.3372342    -5.149054   0.24757518   0.66847747   0.10323671 
   82700     258.7118   -4.1118261   -3.3410183    -5.155115   0.24672818    0.6870795   0.10948123 
   82800    265.02259   -4.1347715   -3.3451613   -5.1593973   0.24227166   0.67550686   0.10684725 
   82900    270.15046   -4.1542847   -3.3493964    -5.171108    0.2447074   0.67124865   0.10086723 
   83000    256.39664   -4.1174814   -3.3535714   -5.1512395   0.24858189   0.68186957   0.10330661 
   83100    262.88329   -4.1415057   -3.3582693   -5.1606614   0.24031309   0.68170188  0.097140683 
   83200    260.18509   -4.1382297   -3.3630324   -5.1580136   0.24446195   0.67074606   0.10457586 
   83300    261.93041   -4.1482403   -3.3678429   -5.1524033   0.23661114   0.67080844  0.096743448 
   83400     255.4038   -4.1331236   -3.3721717   -5.1515319    0.2524415   0.66333781   0.10262903 
   83500    253.43715   -4.1318449   -3.3767524   -5.1534249   0.24845442   0.67255781   0.10056776 
   83600    251.63947   -4.1305067   -3.3807703   -5.1393781   0.23908946   0.67346485  0.096317092 
   83700    252.67778   -4.1373625   -3.3845325   -5.1465333   0.24408491   0.66969896  0.095386889 
   83800    253.73631   -4.1436492   -3.3876654      -5.1441    0.2438437    0.6616851  0.094921969 
   83900    247.96443   -4.1292147   -3.3904277   -5.1447658   0.23814308   0.67528491   0.10212309 
   84000    251.91237   -4.1432218   -3.3926722   -5.1565912   0.23824123   0.67371527   0.10141288 
   84100    254.45402   -4.1524846   -3.3943624   -5.1435548    0.2317908   0.66418671  0.095092655 
   84200     252.0981   -4.1465176   -3.3954147   -5.1497495   0.24083536   0.66840128  0.093995232 
   84300    252.51633   -4.1485978   -3.3962488   -5.1433879   0.23188151   0.66587869  0.097029977 
   84400    251.60696   -4.1459962   -3.3963566   -5.1508931   0.24124605    0.6667362  0.096914698 
   84500    256.43644   -4.1602118   -3.3961832   -5.1651516   0.23591166   0.67238997   0.09663817 
   84600    254.49001    -4.153989   -3.3957596   -5.1582584   0.23715733    0.6659042    0.1012079 
   84700    252.43557   -4.1468201   -3.3947117   -5.1565985   0.24388284   0.66390468    0.1019909 
   84800    252.80874   -4.1465939   -3.3933737   -5.1556715   0.25022357   0.66698193  0.091872117 
   84900     257.0244   -4.1574375   -3.3916572   -5.1557422    0.2381477   0.66190416    0.0982528 
   85000    249.99186   -4.1344819   -3.3896543   -5.1496644   0.24233731   0.67577785  0.097067295 
   85100    256.77285   -4.1522885   -3.3872576   -5.1512464   0.23960818   0.66736706  0.091982685 
   85200    258.67021   -4.1554032   -3.3847193   -5.1574374   0.23472013   0.67047431  0.096839807 
   85300    254.49045   -4.1400369   -3.3818062   -5.1523656   0.24000581   0.67926175  0.093061156 
   85400    258.23231   -4.1477341   -3.3783549    -5.148676   0.23966399   0.66665056  0.094627306 
   85500    260.04508   -4.1496594   -3.3748792   -5.1495071   0.24000914    0.6673631  0.092475457 
   85600    253.47974   -4.1262589   -3.3710395   -5.1481477   0.24557967   0.68051848  0.095790657 
   85700     259.1995   -4.1396224   -3.3673615   -5.1505496   0.24201586   0.67307834  0.095833061 
   85800    260.42403   -4.1391533   -3.3632441   -5.1463177   0.23946211   0.67623807  0.091464225 
   85900    259.06534   -4.1304819   -3.3586207    -5.157632   0.25069146    0.6811689  0.095289674 
   86000    250.02844   -4.0992487   -3.3543121   -5.1401971    0.2509001   0.69034178  0.099706595 
   86100    266.47272   -4.1441871   -3.3502563   -5.1493887   0.23893044   0.67749879  0.088772433 
   86200    258.87777   -4.1173889   -3.3460866   -5.1459222   0.24050306   0.68926479  0.098765443 
   86300    256.70857   -4.1067309   -3.3418916    -5.139892   0.25494632   0.68573987  0.092474907 
   86400    260.36868   -4.1135158   -3.3377715   -5.1373257   0.24696751   0.68086828  0.095974046 
   86500    263.59766   -4.1190942   -3.3337294   -5.1326624   0.23950383   0.68014818  0.093916234 
   86600     255.7604   -4.0916368   -3.3296224   -5.1404216   0.25351722   0.69399861   0.10126902 
   86700    264.71134   -4.1144847   -3.3258018   -5.1490028   0.25198297   0.68250474   0.10003041 
   86800    262.35107   -4.1040196   -3.3223689   -5.1462287   0.25161953   0.68904624   0.10154336 
   86900    261.98681   -4.0996478   -3.3190824   -5.1376412   0.25061559   0.68613019    0.1012476 
   87000    266.62854   -4.1103495   -3.3159545   -5.1405605    0.2593624   0.68016113  0.090687471 
   87100    261.91202   -4.0937755   -3.3134329   -5.1436987   0.25970343   0.69021673   0.10000307 
   87200    266.83696   -4.1065996   -3.3115836   -5.1410463   0.24541551    0.6893301  0.099701124 
   87300    260.44911   -4.0858126   -3.3098287   -5.1359609   0.25218232   0.68819048   0.10977544 
   87400    262.31796   -4.0897573   -3.3082052   -5.1415838   0.25605291   0.69188435   0.10388931 
   87500     271.7593   -4.1168959   -3.3072143   -5.1438747   0.24473706   0.67941995   0.10282178 
   87600    266.48406    -4.100853   -3.3068884   -5.1364044   0.25369356   0.67770041   0.10415747 
   87700    272.39982   -4.1184893   -3.3068993   -5.1458952   0.25464612   0.68120375  0.091556035 
   87800    271.49491   -4.1162095   -3.3073156   -5.1442201   0.25009996   0.67635904   0.10155158 
   87900     273.1117   -4.1222302   -3.3085192   -5.1364473   0.24672937   0.67885424  0.088633468 
   88000    270.36148   -4.1153919   -3.3098749   -5.1394311   0.24233696   0.68347148  0.098230815 
   88100    273.72815   -4.1272984   -3.3117508   -5.1520994   0.24740769   0.68119156  0.096201753 
   88200    266.27012   -4.1075482   -3.3142211   -5.1510206   0.26422257   0.67873953   0.10051032 
   88300    267.02683   -4.1130866   -3.3175049   -5.1562685   0.26049016   0.68533112  0.097360573 
   88400    274.01366   -4.1375884   -3.3211901   -5.1534096   0.24871727   0.67636199  0.090741883 
   88500    259.80226   -4.0991184   -3.3250617   -5.1493518   0.26122794   0.68726038   0.10174502 
   88600    268.20375   -4.1285202   -3.3294319   -5.1474047   0.25397817   0.67136962  0.093536807 
   88700    261.66035   -4.1137822   -3.3341895   -5.1472732   0.25525408   0.67692082   0.10131612 
   88800     263.6009   -4.1246173   -3.3392429   -5.1466192   0.24870637     0.672413   0.10088249 
   88900    266.60311   -4.1386366   -3.3443173   -5.1524334   0.23942204   0.67142239   0.10295238 
   89000    263.67208   -4.1348865      -3.3493   -5.1461214   0.24120945   0.67029729  0.099728222 
   89100    263.72935   -4.1401128   -3.3543557    -5.142651   0.24091931   0.66348507  0.098133793 
   89200    264.35975   -4.1470659   -3.3594305   -5.1535367   0.23701187   0.66931136   0.10014763 
   89300    258.26829   -4.1338476   -3.3643612   -5.1466097     0.238635   0.67473788  0.099389233 
   89400    263.91572   -4.1552086   -3.3688962   -5.1652104   0.23720812   0.67184844   0.10094525 
   89500    263.93043   -4.1602458   -3.3738896   -5.1575878   0.23122994   0.66916269  0.096949331 
   89600    260.82949    -4.155468   -3.3783507   -5.1575835   0.23148646   0.67173704  0.098892016 
   89700    255.47211   -4.1437501   -3.3825946    -5.153926   0.24029765   0.67111675  0.098761485 
   89800    254.22435   -4.1441793   -3.3867414   -5.1498344   0.23651583   0.67059472  0.098544556 
   89900    253.29755    -4.144922   -3.3902454   -5.1524758   0.23832829   0.67373893  0.095486642 
   90000    245.00306   -4.1235021   -3.3935382   -5.1520018     0.244433    0.6823108   0.10175589 
   90100    250.74107   -4.1432692   -3.3962094   -5.1522314    0.2460291   0.66580865  0.097124415 
   90200    253.32865   -4.1531964   -3.3984272   -5.1636312   0.24092527   0.67536003  0.094149496 
   90300    252.97773   -4.1537001   -3.3999764   -5.1604889   0.24727419   0.66105298  0.098461694 
   90400      252.081     -4.15244    -3.401388   -5.1565955   0.24060711    0.6636302  0.099918217 
   90500    256.12019   -4.1656313    -3.402545   -5.1646009   0.23052951    0.6633298   0.10511024 
   90600    253.45924   -4.1582121   -3.4030538   -5.1589889   0.23601855   0.66758719  0.097171017 
   90700     250.4139   -4.1487297   -3.4026447   -5.1629256   0.24259728   0.66724804   0.10435062 
   90800    255.46174   -4.1633492   -3.4022246   -5.1594209   0.23677503   0.66155237  0.097744343 
   90900    253.83619    -4.157473   -3.4011916   -5.1670506   0.24043063   0.66533579   0.10381117 
   91000    248.99332   -4.1414566   -3.3996041   -5.1610512   0.24360606   0.67034576   0.10564277 
   91100    255.37231   -4.1587782   -3.3979201   -5.1652478   0.23675236   0.66777658   0.10194062 
   91200    252.28404   -4.1470611   -3.3954042   -5.1604043   0.24476781   0.67447089  0.094104445 
   91300    253.17979   -4.1471716   -3.3928459   -5.1571214   0.24501524   0.66831873  0.096615808 
   91400     255.0539   -4.1497279   -3.3898185   -5.1599987   0.23799874   0.67749636  0.094775718 
   91500    247.81837   -4.1245756   -3.3862238   -5.1522716   0.25011842   0.67701785   0.10055975 
   91600    254.35971   -4.1400389   -3.3821977    -5.160473    0.2456716   0.67812786  0.096634641 
   91700    254.00278   -4.1350399   -3.3782622   -5.1606776   0.24017434   0.67873841   0.10672492 
   91800    261.26212   -4.1525502   -3.3741439   -5.1670254   0.24087107   0.67408638  0.099517767 
   91900    252.38168   -4.1213394   -3.3693916   -5.1596858   0.24951755   0.67980585   0.10902297 
   92000    257.26346   -4.1315595   -3.3650669   -5.1656947   0.25475649   0.68160746  0.097771226 
   92100    262.74945   -4.1434814   -3.3606438   -5.1567854   0.23428759    0.6803606  0.098655797 
   92200    262.85456   -4.1389786   -3.3558278   -5.1592196   0.25038412   0.68067326  0.089183682 
   92300    260.07181   -4.1260097   -3.3511498   -5.1617795   0.25239725   0.68614447  0.097228118 
   92400    263.14023   -4.1307377   -3.3467358   -5.1609995   0.25073001   0.68278968  0.096742071 
   92500     267.0738   -4.1382852   -3.3425635   -5.1616931   0.24138625   0.68500388  0.097017755 
   92600    264.06542   -4.1253733   -3.3386149   -5.1478609   0.25365254   0.67398873    0.0948463 
   92700    263.35611   -4.1195195   -3.3348743    -5.156447    0.2579154   0.67852248   0.10048965 
   92800    266.38044   -4.1252141   -3.3315583   -5.1586597   0.25558106   0.66914122   0.10872326 
   92900    269.53279   -4.1315318   -3.3284838   -5.1538937   0.25366852   0.67618975  0.092503703 
   93000    261.64431   -4.1050519   -3.3255069   -5.1400368   0.24984413   0.68047683   0.10466397 
   93100    271.21313   -4.1309254    -3.322871    -5.146918   0.25537659   0.67168408  0.088931908 
   93200     270.3748   -4.1258387    -3.320282    -5.148298   0.25149021    0.6828321  0.088137006 
   93300    268.70661    -4.118725   -3.3181386   -5.1534439    0.2437382   0.69141621  0.099564471 
   93400    273.65713   -4.1315665   -3.3162305   -5.1397243   0.23936729     0.677525  0.091265487 
   93500    259.73916   -4.0883037   -3.3144349   -5.1423399   0.25953325   0.69887658  0.095626389 
   93600    267.54158   -4.1102856   -3.3131703   -5.1403167   0.25525599   0.68214709  0.092628022 
   93700    267.53469   -4.1093796   -3.3122848   -5.1423129   0.25589094   0.68451596  0.092526345 
   93800    269.71654   -4.1153953   -3.3117999   -5.1474318   0.25269479   0.68921543  0.090126298 
   93900    265.52022   -4.1028308   -3.3117379   -5.1504332   0.25495754   0.69317318  0.099471722 
   94000    271.43683   -4.1212543   -3.3125334   -5.1465009   0.25163988   0.68142389  0.092182886 
   94100    269.97895   -4.1182279   -3.3138507   -5.1544321   0.25768119    0.6796119  0.098911075 
   94200    269.77976   -4.1194093   -3.3156255   -5.1421762   0.25110205   0.67287011  0.098794731 
   94300    266.04655   -4.1102565   -3.3175955   -5.1504397   0.24734702    0.6866728   0.10616336 
   94400    266.07318   -4.1125598   -3.3198194   -5.1449752   0.25505418   0.67757991  0.099781305 
   94500    273.67627   -4.1378757   -3.3224826   -5.1475909   0.24449244   0.66844232  0.096780471 
   94600    266.35121   -4.1189453   -3.3253766   -5.1526855    0.2428687   0.68980332    0.1010682 
   94700    271.41442   -4.1373264   -3.3286723   -5.1520768   0.24987936   0.66665041   0.09822055 
   94800    264.03437   -4.1190029    -3.332337   -5.1522147   0.24940587   0.68189343   0.10191251 
   94900    265.29205    -4.126657   -3.3362439   -5.1547935   0.25078537   0.67378974   0.10356134 
   95000    269.14065   -4.1421706    -3.340291   -5.1487302   0.23418826   0.67174371   0.10062758 
   95100    262.57885   -4.1266138   -3.3442844   -5.1563631   0.24582845   0.68266692   0.10125394 
   95200    262.14465   -4.1293693   -3.3483336   -5.1581017   0.25618024   0.67623529  0.096316825 
   95300    263.93851   -4.1393337   -3.3529534   -5.1558439   0.24153642   0.67760522  0.097368501 
   95400    262.11513   -4.1386125   -3.3576647   -5.1530808   0.23619471   0.68196258  0.096311095 
   95500    257.92778   -4.1302769    -3.361805    -5.154459   0.24962089   0.68238765  0.092173493 
   95600    258.56241   -4.1363501   -3.3659874   -5.1647589   0.24432726   0.67825381   0.10582764 
   95700    263.31727   -4.1547443   -3.3702149   -5.1640995   0.23749212   0.67337076  0.098492262 
   95800    258.03508   -4.1431191   -3.3743275   -5.1625648   0.22812807   0.68538012    0.1059375 
   95900    253.45559   -4.1333989   -3.3782515   -5.1582889   0.23621135   0.67754655   0.11113214 
   96000    257.90536   -4.1503471    -3.381942   -5.1617304   0.24253614   0.67245885   0.09638833 
   96100    255.22919   -4.1459955   -3.3855638   -5.1652979   0.24030296   0.67531731    0.1036821 
   96200    256.64621   -4.1534471   -3.3887935    -5.166435   0.23655087    0.6746893   0.10174771 
   96300     257.1725   -4.1578391   -3.3916175    -5.160364   0.24015917   0.66256519  0.099800552 
   96400    254.95681   -4.1538633   -3.3942431   -5.1594798   0.23620659   0.66859353   0.10081639 
   96500    256.89194   -4.1620051   -3.3966194   -5.1622964   0.23886228   0.66022946   0.10119962 
   96600    252.56547   -4.1508623   -3.3983669   -5.1611509    0.2394156    0.6701078   0.10076524 
   96700    255.10249   -4.1600048   -3.3999505   -5.1632059   0.23263424   0.66867765   0.10188928 
   96800    257.75563   -4.1690205   -3.4010615   -5.1611401   0.23108271   0.66764864  0.093388289 
   96900    251.90001   -4.1520567   -3.4015439   -5.1561998   0.23831017   0.67278078  0.093052161 
   97000    248.11877   -4.1413783   -3.4021314   -5.1532792   0.23796047   0.66693876   0.10700165 
   97100    257.68783   -4.1698435   -3.4020865   -5.1548789   0.22710953   0.66693914  0.090986755 
   97200    253.74591   -4.1568825     -3.40087   -5.1628316   0.23961769   0.66446813   0.10186333 
   97300    255.68489   -4.1614919   -3.3997025   -5.1655298   0.23946401    0.6700157   0.09455819 
   97400    254.58701   -4.1567577   -3.3982393    -5.161215   0.24595531   0.66206406  0.096437887 
   97500    254.59701   -4.1549763   -3.3964282    -5.157863    0.2344289   0.66403704    0.1044207 
   97600    258.46554   -4.1641176   -3.3940435   -5.1690116   0.24834181   0.66612654  0.090425627 
   97700     255.5668   -4.1530188   -3.3915812   -5.1690275   0.23465413   0.67301733   0.10833726 
   97800    260.50361   -4.1650061   -3.3888597   -5.1681276   0.23420286   0.67002807   0.09889065 
   97900    253.69776   -4.1418557   -3.3859867   -5.1566902   0.24069011    0.6773952  0.096749206 
   98000     255.8846   -4.1453793   -3.3829948   -5.1572263   0.24229035   0.66962741  0.099929256 
   98100      255.985   -4.1421442   -3.3794607   -5.1627031   0.23497164   0.68308456   0.10250262 
   98200    258.85767   -4.1471087   -3.3758663   -5.1662948    0.2389102   0.68532147  0.094954426 
   98300    264.63233   -4.1607278   -3.3722803   -5.1632611   0.23815171   0.66482069  0.099560961 
   98400    259.28274    -4.141304   -3.3687951   -5.1634306   0.23210227   0.68583221    0.1041922 
   98500    264.03682   -4.1515307   -3.3648574   -5.1606497   0.23675901   0.67262163  0.099738387 
   98600    260.88606   -4.1383882   -3.3611023   -5.1551244   0.24901464   0.66774292   0.09997869 
   98700    264.48623   -4.1453761   -3.3573639    -5.157373   0.23545768   0.67961402  0.096925187 
   98800    258.84976   -4.1249689     -3.35375   -5.1642641     0.253617   0.67887609   0.10680213 
   98900    266.80872   -4.1453289   -3.3503971   -5.1669524   0.24967658   0.67405411  0.097892771 
   99000    264.49365   -4.1348933    -3.346859   -5.1627776   0.24900973   0.67233011   0.10654445 
   99100     262.2592   -4.1254929    -3.344116   -5.1563655   0.25078295   0.67499955   0.10509004 
   99200    262.65709   -4.1240722   -3.3415097   -5.1533043   0.24435007   0.68383013   0.10105196 
   99300    270.43453   -4.1447748   -3.3390402   -5.1553223   0.23963559   0.66948122   0.10143068 
   99400     264.4577   -4.1246793   -3.3367521   -5.1551023   0.25106727   0.67359164   0.10576411 
   99500     260.8498   -4.1117763   -3.3345985   -5.1467169   0.24915533   0.68210999   0.10367529 
   99600    271.00771   -4.1406924   -3.3332501   -5.1619369   0.23652704   0.68197003    0.1027474 
   99700    265.85688   -4.1240182   -3.3319222   -5.1515757   0.24870839   0.67751393   0.10133523 
   99800     262.2395   -4.1120154   -3.3306971   -5.1497327    0.2535075   0.68262284   0.10158697 
   99900    271.05335   -4.1376414   -3.3300631   -5.1618193   0.24621081   0.67958605  0.098381003 
  100000    270.91449   -4.1367451   -3.3295805   -5.1604036   0.24828922   0.67702012  0.098349164 
Loop time of 813.065 on 1 procs for 100000 steps with 2125 atoms

Performance: 5.313 ns/day, 4.517 hours/ns, 122.991 timesteps/s
100.0% CPU use with 1 MPI tasks x no OpenMP threads

MPI task timing breakdown:
Section |  min time  |  avg time  |  max time  |%varavg| %total
---------------------------------------------------------------
Pair    | 628.84     | 628.84     | 628.84     |   0.0 | 77.34
Bond    | 79.612     | 79.612     | 79.612     |   0.0 |  9.79
Kspace  | 78.321     | 78.321     | 78.321     |   0.0 |  9.63
Neigh   | 19.659     | 19.659     | 19.659     |   0.0 |  2.42
Comm    | 3.0778     | 3.0778     | 3.0778     |   0.0 |  0.38
Output  | 0.52173    | 0.52173    | 0.52173    |   0.0 |  0.06
Modify  | 2.159      | 2.159      | 2.159      |   0.0 |  0.27
Other   |            | 0.8719     |            |       |  0.11

Nlocal:        2125.00 ave        2125 max        2125 min
Histogram: 1 0 0 0 0 0 0 0 0 0
Nghost:        9553.00 ave        9553 max        9553 min
Histogram: 1 0 0 0 0 0 0 0 0 0
Neighs:        557715.0 ave      557715 max      557715 min
Histogram: 1 0 0 0 0 0 0 0 0 0

Total # of neighbors = 557715
Ave neighs/atom = 262.45412
Ave special neighs/atom = 8.2352941
Neighbor list builds = 1588
Dangerous builds = 0

write_data   system_after_nvt.data
System init for write_data ...
PPPM initialization ...
  using 12-bit tables for long-range coulomb (../kspace.cpp:340)
  G vector (1/distance) = 0.21718632
  grid = 12 12 12
  stencil order = 5
  estimated absolute RMS force accuracy = 0.020416938
  estimated relative force accuracy = 6.1485001e-05
  using double precision KISS FFT
  3d grid and FFT values/proc = 4913 1728
Total wall time: 0:13:33
