LAMMPS (31 Aug 2021)
# PREREQUISITES:
#
#     You must use moltemplate.sh to create 3 files:
#        system.data  system.in.init  system.in.settings
#     (Follow the instructions in README_setup.sh,
#      or run the file as a script using ./README_setup.sh)

# ------------------------------- Initialization Section --------------------

include         "system.in.init"
    units real
    atom_style full
    bond_style harmonic
    angle_style harmonic
    dihedral_style opls
    improper_style harmonic
    pair_style lj/cut/coul/long 11.0 11.0
      # (Note to self: The pair_style used by OPLSAA/M (2015) is:
      #                lj/charmm/coul/long 9.0 11.0
      #                ...so this will have to be updated eventually.)
    pair_modify mix geometric
    special_bonds lj/coul 0.0 0.0 0.5
    kspace_style pppm 0.0001

# ------------------------------- Atom Definition Section -------------------

read_data       "system.data"
Reading data file ...
  orthogonal box = (0.0000000 0.0000000 0.0000000) to (20.000000 20.000000 20.000000)
  1 by 1 by 1 MPI processor grid
  reading atoms ...
  2125 atoms
  scanning bonds ...
  3 = max bonds/atom
  scanning angles ...
  6 = max angles/atom
  scanning dihedrals ...
  9 = max dihedrals/atom
  reading bonds ...
  2000 bonds
  reading angles ...
  2625 angles
  reading dihedrals ...
  4000 dihedrals
Finding 1-2 1-3 1-4 neighbors ...
  special bond factors lj:    0        0        0.5     
  special bond factors coul:  0        0        0.5     
     4 = max # of 1-2 neighbors
     7 = max # of 1-3 neighbors
    14 = max # of 1-4 neighbors
    15 = max # of special neighbors
  special bonds CPU = 0.001 seconds
  read_data CPU = 0.010 seconds

# OPLSAA atom charges are stored in a separate file.
# Load that file now:

include         "system.in.charges"
    #--------------------- IMPORTANT -----------------------
    # The first 56 atom types (excluding 48,49) are not intended for use in an
    # ordinary (all-atom) simulation.  Instead, these atoms were intended for
    # use with "United Atom" molecules which lack hydrogen atoms.
    # (They belong to the OPLSUA force field, not the OPLSAA force field.)
    #--------------------------------------------------------
    set type 1 charge -0.22  # "Fluoride -CH2-F (UA)"    DON'T USE(OPLSUA)
Setting atom values ...
  0 settings made for charge
    set type 2 charge 0.22  # "Fluoride -CH2-F (UA)"     DON'T USE(OPLSUA)
Setting atom values ...
  0 settings made for charge
    set type 3 charge 0.55  # "Acetic Acid -COOH (UA)"   DON'T USE(OPLSUA)
Setting atom values ...
  0 settings made for charge
    set type 4 charge -0.5  # "Acetic Acid >C=O (UA)"    DON'T USE(OPLSUA)
Setting atom values ...
  0 settings made for charge
    set type 5 charge -0.58  # "Acetic Acid -OH (UA)"    DON'T USE(OPLSUA)
Setting atom values ...
  0 settings made for charge
    set type 6 charge 0.08  # "Acetic Acid CH3- (UA)"    DON'T USE(OPLSUA)
Setting atom values ...
  0 settings made for charge
    set type 7 charge 0.45  # "Acetic Acid -OH (UA)"     DON'T USE(OPLSUA)
Setting atom values ...
  0 settings made for charge
    set type 8 charge 0.0  # "Methane CH4 (UA)"          DON'T USE(OPLSUA)
Setting atom values ...
  0 settings made for charge
    set type 9 charge 0.0  # "Ethane CH3- (UA)"          DON'T USE(OPLSUA)
Setting atom values ...
  0 settings made for charge
    set type 10 charge 0.0  # "N-Alkane CH3- (UA)"       DON'T USE(OPLSUA)
Setting atom values ...
  0 settings made for charge
    set type 11 charge 0.0  # "Isobutane CH3- (UA)"      DON'T USE(OPLSUA)
Setting atom values ...
  0 settings made for charge
    set type 12 charge 0.0  # "Neopentane CH3- (UA)"     DON'T USE(OPLSUA)
Setting atom values ...
  0 settings made for charge
    set type 13 charge 0.0  # "Alkanes -CH2- (UA)"       DON'T USE(OPLSUA)
Setting atom values ...
  0 settings made for charge
    set type 14 charge 0.0  # "1-Alkene CH2= (UA)"       DON'T USE(OPLSUA)
Setting atom values ...
  0 settings made for charge
    set type 15 charge 0.0  # "Isobutane CH (UA)"        DON'T USE(OPLSUA)
Setting atom values ...
  0 settings made for charge
    set type 16 charge 0.0  # "2-Alkene -CH= (UA)"       DON'T USE(OPLSUA)
Setting atom values ...
  0 settings made for charge
    set type 17 charge 0.0  # "Aromatic CH (UA)"         DON'T USE(OPLSUA)
Setting atom values ...
  0 settings made for charge
    set type 18 charge 0.0  # "Neopentane C (UA)"        DON'T USE(OPLSUA)
Setting atom values ...
  0 settings made for charge
    set type 19 charge 0.0  # "Isobutene >C= (UA)"       DON'T USE(OPLSUA)
Setting atom values ...
  0 settings made for charge
    set type 20 charge -0.7  # "Alcohol OH (UA)"         DON'T USE(OPLSUA)
Setting atom values ...
  0 settings made for charge
    set type 21 charge 0.435  # "Alcohol OH (UA)"        DON'T USE(OPLSUA)
Setting atom values ...
  0 settings made for charge
    set type 22 charge 0.265  # "Methanol CH3- (UA)"     DON'T USE(OPLSUA)
Setting atom values ...
  0 settings made for charge
    set type 23 charge 0.265  # "Ethanol -CH2OH (UA)"    DON'T USE(OPLSUA)
Setting atom values ...
  0 settings made for charge
    set type 24 charge -0.47  # "Hydrogen Sulfide H2S"   DON'T USE(OPLSUA)
Setting atom values ...
  0 settings made for charge
    set type 25 charge -0.45  # "Alkyl Sulfide RSH (UA)" DON'T USE(OPLSUA)
Setting atom values ...
  0 settings made for charge
    set type 26 charge -0.47  # "Thioether RSR (UA)"     DON'T USE(OPLSUA)
Setting atom values ...
  0 settings made for charge
    set type 27 charge -0.3  # "Disulfide RSSR (UA)"     DON'T USE(OPLSUA)
Setting atom values ...
  0 settings made for charge
    set type 28 charge 0.235  # "Hydrogen Sulfide H2S"   DON'T USE(OPLSUA)
Setting atom values ...
  0 settings made for charge
    set type 29 charge 0.27  # "Alkyl Sulfide RSH (UA)"  DON'T USE(OPLSUA)
Setting atom values ...
  0 settings made for charge
    set type 30 charge 0.18  # "Methyl Sulfide CH3 (UA)" DON'T USE(OPLSUA)
Setting atom values ...
  0 settings made for charge
    set type 31 charge 0.18  # "Alkyl Sulfide CH2 (UA)"  DON'T USE(OPLSUA)
Setting atom values ...
  0 settings made for charge
    set type 32 charge 0.235  # "Thioether CH3 (UA)"     DON'T USE(OPLSUA)
Setting atom values ...
  0 settings made for charge
    set type 33 charge 0.235  # "Thioether CH2 (UA)"     DON'T USE(OPLSUA)
Setting atom values ...
  0 settings made for charge
    set type 34 charge 0.3  # "Disulfide CH3 (UA)"       DON'T USE(OPLSUA)
Setting atom values ...
  0 settings made for charge
    set type 35 charge 0.3  # "Disulfide CH2 (UA)"       DON'T USE(OPLSUA)
Setting atom values ...
  0 settings made for charge
    set type 36 charge -0.43  # "Acetonitrile -CN (UA)"  DON'T USE(OPLSUA)
Setting atom values ...
  0 settings made for charge
    set type 37 charge 0.28  # "Acetonitrile -CN (UA)"   DON'T USE(OPLSUA)
Setting atom values ...
  0 settings made for charge
    set type 38 charge 0.15  # "Acetonitrile CH3 (UA)"   DON'T USE(OPLSUA)
Setting atom values ...
  0 settings made for charge
    set type 39 charge 0.265  # "Isopropanol >CHOH (UA)" DON'T USE(OPLSUA)
Setting atom values ...
  0 settings made for charge
    set type 40 charge 0.265  # "t-Butanol COH (UA)"     DON'T USE(OPLSUA)
Setting atom values ...
  0 settings made for charge
    set type 41 charge -0.5  # "Ether ROR (UA)"          DON'T USE(OPLSUA)
Setting atom values ...
  0 settings made for charge
    set type 42 charge 0.25  # "Ether CH3-OR (UA)"       DON'T USE(OPLSUA)
Setting atom values ...
  0 settings made for charge
    set type 43 charge 0.25  # "Ether -CH2-OR (UA)"      DON'T USE(OPLSUA)
Setting atom values ...
  0 settings made for charge
    set type 44 charge 0.5  # "Methylene Chloride (UA)"  DON'T USE(OPLSUA)
Setting atom values ...
  0 settings made for charge
    set type 45 charge -0.25  # "Methylene Chloride (UA)"DON'T USE(OPLSUA)
Setting atom values ...
  0 settings made for charge
    set type 46 charge 0.42  # "Chloroform CHCl3 (UA)"   DON'T USE(OPLSUA)
Setting atom values ...
  0 settings made for charge
    set type 47 charge -0.14  # "Chloroform CHCl3 (UA)"  DON'T USE(OPLSUA)
Setting atom values ...
  0 settings made for charge
    set type 48 charge 0.248  # "Carbon Tetrachloride"
Setting atom values ...
  0 settings made for charge
    set type 49 charge -0.062  # "Carbon Tetrachloride"
Setting atom values ...
  0 settings made for charge
    set type 50 charge 0.139  # "DMSO >S=O (UA)"         DON'T USE(OPLSUA)
Setting atom values ...
  0 settings made for charge
    set type 51 charge -0.459  # "DMSO >S=O (UA)"        DON'T USE(OPLSUA)
Setting atom values ...
  0 settings made for charge
    set type 52 charge 0.16  # "DMSO CH3- (UA)"          DON'T USE(OPLSUA)
Setting atom values ...
  0 settings made for charge
    set type 53 charge -0.5  # "DMF C=O (UA)"            DON'T USE(OPLSUA)
Setting atom values ...
  0 settings made for charge
    set type 54 charge -0.57  # "DMF CON< (UA)"          DON'T USE(OPLSUA)
Setting atom values ...
  0 settings made for charge
    set type 55 charge 0.5  # "DMF C=O (UA)"             DON'T USE(OPLSUA)
Setting atom values ...
  0 settings made for charge
    set type 56 charge 0.285  # "DMF CH3- (UA)"          DON'T USE(OPLSUA)
Setting atom values ...
  0 settings made for charge
    #--------------------------------------------------------
    # ORDINARY (OPLSAA) ATOM TYPES BEGIN HERE:
    # Do not use the "UA" atom types above this line in an all-atom simulation.
    #--------------------------------------------------------
    set type 57 charge 0.0  # "Dummy Atom"
Setting atom values ...
  0 settings made for charge
    set type 58 charge 0.0  # "Helium Atom"
Setting atom values ...
  0 settings made for charge
    set type 59 charge 0.0  # "Neon Atom"
Setting atom values ...
  0 settings made for charge
    set type 60 charge 0.0  # "Argon Atom"
Setting atom values ...
  0 settings made for charge
    set type 61 charge 0.0  # "Krypton Atom"
Setting atom values ...
  0 settings made for charge
    set type 62 charge 0.0  # "Xenon Atom"
Setting atom values ...
  0 settings made for charge
    set type 63 charge -0.834  # "TIP3P Water O"
Setting atom values ...
  0 settings made for charge
    set type 64 charge 0.417  # "TIP3P Water H"
Setting atom values ...
  0 settings made for charge
    set type 65 charge 0.0  # "TIP4P Water O"
Setting atom values ...
  0 settings made for charge
    set type 66 charge 0.52  # "TIP4P Water H"
Setting atom values ...
  0 settings made for charge
    set type 67 charge -1.04  # "TIP4P Water M"
Setting atom values ...
  0 settings made for charge
    set type 68 charge -0.822  # "TIP3F Water O"
Setting atom values ...
  0 settings made for charge
    set type 69 charge 0.411  # "TIP3F Water H"
Setting atom values ...
  0 settings made for charge
    set type 70 charge 0.0  # "TIP4F Water O"
Setting atom values ...
  0 settings made for charge
    set type 71 charge 0.511  # "TIP4F Water H"
Setting atom values ...
  0 settings made for charge
    set type 72 charge -1.022  # "TIP4F Water M"
Setting atom values ...
  0 settings made for charge
    set type 73 charge 0.0  # "TIP5P Water O"
Setting atom values ...
  0 settings made for charge
    set type 74 charge 0.241  # "TIP5P Water H"
Setting atom values ...
  0 settings made for charge
    set type 75 charge -0.241  # "TIP5P Water LP"
Setting atom values ...
  0 settings made for charge
    set type 76 charge -0.82  # "SPC Water O"
Setting atom values ...
  0 settings made for charge
    set type 77 charge 0.41  # "SPC Water H"
Setting atom values ...
  0 settings made for charge
    set type 78 charge -1.02  # "Ammonia NH3"
Setting atom values ...
  0 settings made for charge
    set type 79 charge 0.34  # "Ammonia NH3"
Setting atom values ...
  0 settings made for charge
    set type 80 charge -0.18  # "Alkane CH3-"
Setting atom values ...
  0 settings made for charge
    set type 81 charge -0.12  # "Alkane -CH2-"
Setting atom values ...
  0 settings made for charge
    set type 82 charge -0.06  # "Alkane >CH-"
Setting atom values ...
  0 settings made for charge
    set type 83 charge -0.24  # "Methane CH4"
Setting atom values ...
  0 settings made for charge
    set type 84 charge 0.0  # "Alkane >C<"
Setting atom values ...
  0 settings made for charge
    set type 85 charge 0.06  # "Alkane H-C"
Setting atom values ...
  0 settings made for charge
    set type 86 charge 0.0  # "Alkene R2-C="
Setting atom values ...
  0 settings made for charge
    set type 87 charge -0.115  # "Alkene RH-C="
Setting atom values ...
  0 settings made for charge
    set type 88 charge -0.23  # "Alkene H2-C="
Setting atom values ...
  0 settings made for charge
    set type 89 charge 0.115  # "Alkene H-C="
Setting atom values ...
  0 settings made for charge
    set type 90 charge -0.115  # "Aromatic C"
Setting atom values ...
  0 settings made for charge
    set type 91 charge 0.115  # "Aromatic H-C"
Setting atom values ...
  0 settings made for charge
    set type 92 charge 0.0  # "Naphthalene Fusion C"
Setting atom values ...
  0 settings made for charge
    set type 93 charge -0.065  # "Ethyl Benzene CH3-"
Setting atom values ...
  0 settings made for charge
    set type 94 charge -0.005  # "Ethyl Benzene -CH2-"
Setting atom values ...
  0 settings made for charge
    set type 95 charge -0.115  # "Diene =CH-CH="
Setting atom values ...
  0 settings made for charge
    set type 96 charge -0.683  # "Alcohol -OH"
Setting atom values ...
  0 settings made for charge
    set type 97 charge 0.418  # "Alcohol -OH"
Setting atom values ...
  0 settings made for charge
    set type 98 charge 0.04  # "Methanol CH3-"
Setting atom values ...
  0 settings made for charge
    set type 99 charge 0.145  # "Alcohol CH3OH & RCH2OH"
Setting atom values ...
  0 settings made for charge
    set type 100 charge 0.205  # "Alcohol R2CHOH"
Setting atom values ...
  0 settings made for charge
    set type 101 charge 0.265  # "Alcohol R3COH"
Setting atom values ...
  0 settings made for charge
    set type 102 charge 0.1263  # "Trifluoroethanol -CH2-"
Setting atom values ...
  0 settings made for charge
    set type 103 charge 0.5323  # "Trifluoroethanol CF3-"
Setting atom values ...
  0 settings made for charge
    set type 104 charge -0.6351  # "Trifluoroethanol -OH"
Setting atom values ...
  0 settings made for charge
    set type 105 charge 0.4286  # "Trifluoroethanol -OH"
Setting atom values ...
  0 settings made for charge
    set type 106 charge -0.2057  # "Trifluoroethanol F"
Setting atom values ...
  0 settings made for charge
    set type 107 charge 0.0825  # "Trifluoroethanol -CH2-"
Setting atom values ...
  0 settings made for charge
    set type 108 charge 0.15  # "Phenol C-OH"
Setting atom values ...
  0 settings made for charge
    set type 109 charge -0.585  # "Phenol -OH"
Setting atom values ...
  0 settings made for charge
    set type 110 charge 0.435  # "Phenol -OH"
Setting atom values ...
  0 settings made for charge
    set type 111 charge -0.7  # "Diol -OH"
Setting atom values ...
  0 settings made for charge
    set type 112 charge 0.435  # "Diol -OH"
Setting atom values ...
  0 settings made for charge
    set type 113 charge -0.73  # "Triol -OH"
Setting atom values ...
  0 settings made for charge
    set type 114 charge 0.465  # "Triol -OH"
Setting atom values ...
  0 settings made for charge
    set type 115 charge 0.145  # "Diol & Triol -CH2OH"
Setting atom values ...
  0 settings made for charge
    set type 116 charge 0.205  # "Diol & Triol -CHROH"
Setting atom values ...
  0 settings made for charge
    set type 117 charge 0.265  # "Diol & Triol -CR2OH"
Setting atom values ...
  0 settings made for charge
    set type 118 charge 0.06  # "Diol & Triol H-COH"
Setting atom values ...
  0 settings made for charge
    set type 119 charge -0.17  # "Diphenyl Ether"
Setting atom values ...
  0 settings made for charge
    set type 120 charge 0.0  # "Diene =CR-CR="
Setting atom values ...
  0 settings made for charge
    set type 121 charge -0.285  # "Anisole -OCH3"
Setting atom values ...
  0 settings made for charge
    set type 122 charge -0.4  # "Dialkyl Ether -O-"
Setting atom values ...
  0 settings made for charge
    set type 123 charge 0.11  # "Methyl Ether CH3OR"
Setting atom values ...
  0 settings made for charge
    set type 124 charge 0.14  # "Ethyl Ether -CH2OR"
Setting atom values ...
  0 settings made for charge
    set type 125 charge 0.17  # "Isopropyl Ether >CHOR"
Setting atom values ...
  0 settings made for charge
    set type 126 charge 0.2  # "t-Butyl Ether COR"
Setting atom values ...
  0 settings made for charge
    set type 127 charge 0.03  # "Alkyl Ether H-COR"
Setting atom values ...
  0 settings made for charge
    set type 128 charge -0.4  # "Acetal RO-CR2OX"
Setting atom values ...
  0 settings made for charge
    set type 129 charge -0.7  # "Hemiacetal -OH"
Setting atom values ...
  0 settings made for charge
    set type 130 charge 0.435  # "Hemiacetal -OH"
Setting atom values ...
  0 settings made for charge
    set type 131 charge 0.2  # "Acetal RO-CH2-OR"
Setting atom values ...
  0 settings made for charge
    set type 132 charge 0.1  # "Acetal RO-CH2-OR"
Setting atom values ...
  0 settings made for charge
    set type 133 charge 0.265  # "Hemiacetal RO-CH2-OH"
Setting atom values ...
  0 settings made for charge
    set type 134 charge 0.1  # "Hemiacetal RO-CH2-OH"
Setting atom values ...
  0 settings made for charge
    set type 135 charge 0.3  # "Acetal RO-CHR-OR"
Setting atom values ...
  0 settings made for charge
    set type 136 charge 0.1  # "Acetal RO-CHR-OR"
Setting atom values ...
  0 settings made for charge
    set type 137 charge 0.365  # "Hemiacetal RO-CHR-OH"
Setting atom values ...
  0 settings made for charge
    set type 138 charge 0.1  # "Hemiacetal RO-CHR-OH"
Setting atom values ...
  0 settings made for charge
    set type 139 charge 0.4  # "Acetal RO-CR2-OR"
Setting atom values ...
  0 settings made for charge
    set type 140 charge 0.465  # "Hemiacetal RO-CR2-OH"
Setting atom values ...
  0 settings made for charge
    set type 141 charge 0.085  # "Anisole C-OCH3"
Setting atom values ...
  0 settings made for charge
    set type 142 charge -0.335  # "Thiol -SH"
Setting atom values ...
  0 settings made for charge
    set type 143 charge -0.47  # "Hydrogen Sulfide H2S"
Setting atom values ...
  0 settings made for charge
    set type 144 charge -0.435  # "Sulfide -S-"
Setting atom values ...
  0 settings made for charge
    set type 145 charge -0.2175  # "Disulfide -S-S-"
Setting atom values ...
  0 settings made for charge
    set type 146 charge 0.155  # "Thiol -SH"
Setting atom values ...
  0 settings made for charge
    set type 147 charge 0.235  # "Hydrogen Sulfide H2S"
Setting atom values ...
  0 settings made for charge
    set type 148 charge 0.06  # "Thiol -CH2-SH"
Setting atom values ...
  0 settings made for charge
    set type 149 charge 0.12  # "Thiol >CH-SH"
Setting atom values ...
  0 settings made for charge
    set type 150 charge 0.18  # "Thiol C-SH"
Setting atom values ...
  0 settings made for charge
    set type 151 charge 0.0375  # "Methyl Sulfide CH3-SR"
Setting atom values ...
  0 settings made for charge
    set type 152 charge 0.0975  # "Sulfide RCH2-SR"
Setting atom values ...
  0 settings made for charge
    set type 153 charge 0.1575  # "Sulfide R2CH-SR"
Setting atom values ...
  0 settings made for charge
    set type 154 charge 0.2175  # "Sulfide R3C-SR"
Setting atom values ...
  0 settings made for charge
    set type 155 charge 0.0375  # "Disulfide CH3-S-SR"
Setting atom values ...
  0 settings made for charge
    set type 156 charge 0.0975  # "Disulfide RCH2-S-SR"
Setting atom values ...
  0 settings made for charge
    set type 157 charge 0.1575  # "Disulfide R2CH-S-SR"
Setting atom values ...
  0 settings made for charge
    set type 158 charge 0.2175  # "Disulfide R3C-S-SR"
Setting atom values ...
  0 settings made for charge
    set type 159 charge 0.0  # "Methanethiol CH3-SH"
Setting atom values ...
  0 settings made for charge
    set type 160 charge 0.2  # "Benzyl Alcohol -CH2OH"
Setting atom values ...
  0 settings made for charge
    set type 161 charge 0.26  # "Benzyl Alcohol -CHROH"
Setting atom values ...
  0 settings made for charge
    set type 162 charge 0.32  # "Benzyl Alcohol -CR2OH"
Setting atom values ...
  0 settings made for charge
    set type 163 charge -0.055  # "Benzyl Alcohol/Nitrile"
Setting atom values ...
  0 settings made for charge
    set type 164 charge -0.32  # "Thioanisole -SCH3"
Setting atom values ...
  0 settings made for charge
    set type 165 charge 0.08  # "RCH2-NH2 & GLY CA"
Setting atom values ...
  0 settings made for charge
    set type 166 charge 0.14  # "RCHR-NH2 & ALA CA"
Setting atom values ...
  0 settings made for charge
    set type 167 charge 0.2  # "R3C-NH2 & AIB CA"
Setting atom values ...
  0 settings made for charge
    set type 168 charge -0.12  # "Chloroalkene Cl-CH="
Setting atom values ...
  0 settings made for charge
    set type 169 charge 0.005  # "Chloroalkene Cl-CH="
Setting atom values ...
  0 settings made for charge
    set type 170 charge 0.1025  # "Thioanisole C-SCH3"
Setting atom values ...
  0 settings made for charge
    set type 171 charge 0.14  # "Amide -NH-CHR2"
Setting atom values ...
  0 settings made for charge
    set type 172 charge 0.2  # "Amide -NH-CR3"
Setting atom values ...
  0 settings made for charge
    set type 173 charge 0.7  # "Benzophenone C=O"
Setting atom values ...
  0 settings made for charge
    set type 174 charge 0.565  # "Benzaldehyde C=O"
Setting atom values ...
  0 settings made for charge
    set type 175 charge 0.585  # "Acetophenone C=O"
Setting atom values ...
  0 settings made for charge
    set type 176 charge 0.615  # "Benzamide C=O"
Setting atom values ...
  0 settings made for charge
    set type 177 charge 0.5  # "Amide C=O"
Setting atom values ...
  0 settings made for charge
    set type 178 charge -0.5  # "Amide C=O"
Setting atom values ...
  0 settings made for charge
    set type 179 charge -0.76  # "Amide -CO-NH2"
Setting atom values ...
  0 settings made for charge
    set type 180 charge -0.5  # "Amide -CO-NHR"
Setting atom values ...
  0 settings made for charge
    set type 181 charge -0.14  # "Amide -CO-NR2"
Setting atom values ...
  0 settings made for charge
    set type 182 charge 0.38  # "Amide -CO-NH2"
Setting atom values ...
  0 settings made for charge
    set type 183 charge 0.3  # "Amide -CO-NHR"
Setting atom values ...
  0 settings made for charge
    set type 184 charge 0.02  # "Amide -NH-CH3"
Setting atom values ...
  0 settings made for charge
    set type 185 charge -0.11  # "Amide -NR-CH3"
Setting atom values ...
  0 settings made for charge
    set type 186 charge 0.08  # "Amide -NH-CH2R"
Setting atom values ...
  0 settings made for charge
    set type 187 charge -0.05  # "Amide -NR-CH2R & PRO CD"
Setting atom values ...
  0 settings made for charge
    set type 188 charge 0.01  # "Amide -NR-CHR2 & PRO CA"
Setting atom values ...
  0 settings made for charge
    set type 189 charge 0.142  # "Urea C=O"
Setting atom values ...
  0 settings made for charge
    set type 190 charge -0.39  # "Urea C=O"
Setting atom values ...
  0 settings made for charge
    set type 191 charge -0.542  # "Urea -NH2"
Setting atom values ...
  0 settings made for charge
    set type 192 charge 0.333  # "Urea -NH2"
Setting atom values ...
  0 settings made for charge
    set type 193 charge -0.49  # "Imide -NH-"
Setting atom values ...
  0 settings made for charge
    set type 194 charge 0.42  # "Imide C=O"
Setting atom values ...
  0 settings made for charge
    set type 195 charge -0.42  # "Imide C=O"
Setting atom values ...
  0 settings made for charge
    set type 196 charge 0.37  # "Imide -NH-"
Setting atom values ...
  0 settings made for charge
    set type 197 charge 0.06  # "Formimide H-C=O"
Setting atom values ...
  0 settings made for charge
    set type 198 charge -0.12  # "Imide CH3-CONHCO-"
Setting atom values ...
  0 settings made for charge
    set type 199 charge -0.06  # "Imide -CH2-CONHCO-"
Setting atom values ...
  0 settings made for charge
    set type 200 charge 0.0  # "Imide >CH-CONHCO-"
Setting atom values ...
  0 settings made for charge
    set type 201 charge 0.06  # "Imide C-CONHCO-"
Setting atom values ...
  0 settings made for charge
    set type 202 charge 0.035  # "Benzonitrile C-CN"
Setting atom values ...
  0 settings made for charge
    set type 203 charge 0.395  # "Benzonitrile -CN"
Setting atom values ...
  0 settings made for charge
    set type 204 charge -0.43  # "Benzonitrile -CN"
Setting atom values ...
  0 settings made for charge
    set type 205 charge 0.18  # "Chlorobenzene C-Cl"
Setting atom values ...
  0 settings made for charge
    set type 206 charge -0.18  # "Chlorobenzene C-Cl"
Setting atom values ...
  0 settings made for charge
    set type 207 charge -0.385  # "N-Phenylacetamide N"
Setting atom values ...
  0 settings made for charge
    set type 208 charge 0.085  # "N-Phenylacetamide N-CA"
Setting atom values ...
  0 settings made for charge
    set type 209 charge 0.52  # "Carboxylic Acid -COOH"
Setting atom values ...
  0 settings made for charge
    set type 210 charge -0.44  # "Carboxylic Acid C=O"
Setting atom values ...
  0 settings made for charge
    set type 211 charge -0.53  # "Carboxylic Acid -OH"
Setting atom values ...
  0 settings made for charge
    set type 212 charge 0.45  # "Carboxylic Acid -COOH"
Setting atom values ...
  0 settings made for charge
    set type 213 charge 0.7  # "Carboxylate COO-"
Setting atom values ...
  0 settings made for charge
    set type 214 charge -0.8  # "Carboxylate COO-"
Setting atom values ...
  0 settings made for charge
    set type 215 charge -0.28  # "Carboxylate CH3-COO-"
Setting atom values ...
  0 settings made for charge
    set type 216 charge -0.22  # "Carboxylate RCH2-COO-"
Setting atom values ...
  0 settings made for charge
    set type 217 charge -0.16  # "Carboxylate R2CH-COO-"
Setting atom values ...
  0 settings made for charge
    set type 218 charge -0.1  # "Carboxylate R3C-COO-"
Setting atom values ...
  0 settings made for charge
    set type 219 charge 0.45  # "Aldehyde/Acyl Halide C=O"
Setting atom values ...
  0 settings made for charge
    set type 220 charge -0.45  # "Aldehyde/Acyl Halide C=O"
Setting atom values ...
  0 settings made for charge
    set type 221 charge 0.0  # "Aldehyde/Formamide H-C=O"
Setting atom values ...
  0 settings made for charge
    set type 222 charge 0.47  # "Ketone C=O"
Setting atom values ...
  0 settings made for charge
    set type 223 charge -0.47  # "Ketone C=O"
Setting atom values ...
  0 settings made for charge
    set type 224 charge 0.06  # "Acyl H-C-COX"
Setting atom values ...
  0 settings made for charge
    set type 225 charge 0.04  # "C-Terminal ALA CA"
Setting atom values ...
  0 settings made for charge
    set type 226 charge -0.02  # "C-Terminal GLY CA"
Setting atom values ...
  0 settings made for charge
    set type 227 charge 0.1  # "C-Terminal AIB CA"
Setting atom values ...
  0 settings made for charge
    set type 228 charge -0.09  # "C-Terminal PRO CA"
Setting atom values ...
  0 settings made for charge
    set type 229 charge -0.4  # "Ammonium NH4+"
Setting atom values ...
  0 settings made for charge
    set type 230 charge -0.3  # "Ammonium RNH3+"
Setting atom values ...
  0 settings made for charge
    set type 231 charge 0.0  # "Ammonium R4N+"
Setting atom values ...
  0 settings made for charge
    set type 232 charge 0.35  # "Ammonium NH4+"
Setting atom values ...
  0 settings made for charge
    set type 233 charge 0.33  # "Ammonium RNH3+"
Setting atom values ...
  0 settings made for charge
    set type 234 charge 0.13  # "Ammonium CH3-NH3+"
Setting atom values ...
  0 settings made for charge
    set type 235 charge 0.19  # "CH3NH3+/N-Term GLY CA"
Setting atom values ...
  0 settings made for charge
    set type 236 charge 0.25  # "RCH2NH3+/N-Term ALA CA"
Setting atom values ...
  0 settings made for charge
    set type 237 charge 0.31  # "R3C-NH3+/N-Term AIB CA"
Setting atom values ...
  0 settings made for charge
    set type 238 charge 0.23  # "N-Terminal PRO CA"
Setting atom values ...
  0 settings made for charge
    set type 239 charge 0.17  # "N-Terminal PRO CD"
Setting atom values ...
  0 settings made for charge
    set type 240 charge 0.11  # "Ammonium CH3-NH2R+"
Setting atom values ...
  0 settings made for charge
    set type 241 charge 0.09  # "GLY Zwitterion CA"
Setting atom values ...
  0 settings made for charge
    set type 242 charge 0.15  # "ALA Zwitterion CA"
Setting atom values ...
  0 settings made for charge
    set type 243 charge -0.8  # "Guanidinium -NH2"
Setting atom values ...
  0 settings made for charge
    set type 244 charge 0.46  # "Guanidinium -NH2"
Setting atom values ...
  0 settings made for charge
    set type 245 charge 0.64  # "Guanidinium C+"
Setting atom values ...
  0 settings made for charge
    set type 246 charge -0.7  # "Guanidinium -NHR"
Setting atom values ...
  0 settings made for charge
    set type 247 charge 0.44  # "Guanidinium -NHR"
Setting atom values ...
  0 settings made for charge
    set type 248 charge 0.2  # "Me Guanidinium CH3-"
Setting atom values ...
  0 settings made for charge
    set type 249 charge -0.11  # "Et Guanidinium CH3-"
Setting atom values ...
  0 settings made for charge
    set type 250 charge 0.19  # "Et Guan -CH2- & ARG CD"
Setting atom values ...
  0 settings made for charge
    set type 251 charge -0.05  # "Pr Guan -CH2- & ARG CG"
Setting atom values ...
  0 settings made for charge
    set type 252 charge -0.2  # "Ammonium R2NH2+"
Setting atom values ...
  0 settings made for charge
    set type 253 charge 0.31  # "Ammonium R2NH2+"
Setting atom values ...
  0 settings made for charge
    set type 254 charge -0.46  # "Diaminopyridine N1"
Setting atom values ...
  0 settings made for charge
    set type 255 charge 0.36  # "Diaminopyridine C2"
Setting atom values ...
  0 settings made for charge
    set type 256 charge -0.85  # "Diaminopyridine -NH2"
Setting atom values ...
  0 settings made for charge
    set type 257 charge 0.37  # "Diaminopyridine -NH2"
Setting atom values ...
  0 settings made for charge
    set type 258 charge -0.15  # "Diaminopyridine C3"
Setting atom values ...
  0 settings made for charge
    set type 259 charge 0.1  # "Diaminopyridine H3"
Setting atom values ...
  0 settings made for charge
    set type 260 charge -0.04  # "Diaminopyridine C4"
Setting atom values ...
  0 settings made for charge
    set type 261 charge 0.1  # "Diaminopyridine H4"
Setting atom values ...
  0 settings made for charge
    set type 262 charge -0.6  # "Uracil & Thymine N1"
Setting atom values ...
  0 settings made for charge
    set type 263 charge 0.5  # "Uracil & Thymine C2"
Setting atom values ...
  0 settings made for charge
    set type 264 charge -0.51  # "Uracil & Thymine N3"
Setting atom values ...
  0 settings made for charge
    set type 265 charge 0.45  # "Uracil & Thymine C4"
Setting atom values ...
  0 settings made for charge
    set type 266 charge -0.07  # "Uracil & Thymine C5"
Setting atom values ...
  0 settings made for charge
    set type 267 charge 0.08  # "Uracil & Thymine C6"
Setting atom values ...
  0 settings made for charge
    set type 268 charge 0.41  # "Uracil & Thymine HN1"
Setting atom values ...
  0 settings made for charge
    set type 269 charge -0.4  # "Uracil & Thymine O2"
Setting atom values ...
  0 settings made for charge
    set type 270 charge 0.36  # "Uracil & Thymine HN3"
Setting atom values ...
  0 settings made for charge
    set type 271 charge -0.42  # "Uracil & Thymine O4"
Setting atom values ...
  0 settings made for charge
    set type 272 charge 0.1  # "Uracil & Thymine HC5"
Setting atom values ...
  0 settings made for charge
    set type 273 charge 0.1  # "Uracil & Thymine HC6"
Setting atom values ...
  0 settings made for charge
    set type 274 charge -0.14  # "Thymine CH3-"
Setting atom values ...
  0 settings made for charge
    set type 275 charge 0.08  # "Thymine CH3-"
Setting atom values ...
  0 settings made for charge
    set type 276 charge -0.56  # "Cytosine N1"
Setting atom values ...
  0 settings made for charge
    set type 277 charge 0.55  # "Cytosine C2"
Setting atom values ...
  0 settings made for charge
    set type 278 charge -0.54  # "Cytosine N3"
Setting atom values ...
  0 settings made for charge
    set type 279 charge 0.46  # "Cytosine C4"
Setting atom values ...
  0 settings made for charge
    set type 280 charge -0.06  # "Cytosine C5"
Setting atom values ...
  0 settings made for charge
    set type 281 charge 0.1  # "Cytosine C6"
Setting atom values ...
  0 settings made for charge
    set type 282 charge 0.38  # "Cytosine HN1"
Setting atom values ...
  0 settings made for charge
    set type 283 charge -0.48  # "Cytosine O2"
Setting atom values ...
  0 settings made for charge
    set type 284 charge -0.79  # "Cytosine NH2-"
Setting atom values ...
  0 settings made for charge
    set type 285 charge 0.385  # "Cytosine NH2- (N3)"
Setting atom values ...
  0 settings made for charge
    set type 286 charge 0.355  # "Cytosine NH2- (C5)"
Setting atom values ...
  0 settings made for charge
    set type 287 charge 0.1  # "Cytosine HC5"
Setting atom values ...
  0 settings made for charge
    set type 288 charge 0.1  # "Cytosine HC6"
Setting atom values ...
  0 settings made for charge
    set type 289 charge -0.53  # "Adenine N1"
Setting atom values ...
  0 settings made for charge
    set type 290 charge 0.22  # "Adenine C2"
Setting atom values ...
  0 settings made for charge
    set type 291 charge -0.55  # "Adenine N3"
Setting atom values ...
  0 settings made for charge
    set type 292 charge 0.38  # "Adenine C4"
Setting atom values ...
  0 settings made for charge
    set type 293 charge 0.15  # "Adenine C5"
Setting atom values ...
  0 settings made for charge
    set type 294 charge 0.44  # "Adenine C6"
Setting atom values ...
  0 settings made for charge
    set type 295 charge -0.49  # "Adenine & Guanine N7"
Setting atom values ...
  0 settings made for charge
    set type 296 charge 0.2  # "Adenine & Guanine C8"
Setting atom values ...
  0 settings made for charge
    set type 297 charge -0.5  # "Adenine & Guanine N9"
Setting atom values ...
  0 settings made for charge
    set type 298 charge 0.2  # "Adenine HC2"
Setting atom values ...
  0 settings made for charge
    set type 299 charge -0.81  # "Adenine NH2-"
Setting atom values ...
  0 settings made for charge
    set type 300 charge 0.385  # "Adenine NH2- (N1)"
Setting atom values ...
  0 settings made for charge
    set type 301 charge 0.355  # "Adenine NH2- (C5)"
Setting atom values ...
  0 settings made for charge
    set type 302 charge 0.2  # "Adenine & Guanine HC8"
Setting atom values ...
  0 settings made for charge
    set type 303 charge 0.35  # "Adenine & Guanine HN9"
Setting atom values ...
  0 settings made for charge
    set type 304 charge -0.56  # "Guanine N1"
Setting atom values ...
  0 settings made for charge
    set type 305 charge 0.46  # "Guanine C2"
Setting atom values ...
  0 settings made for charge
    set type 306 charge -0.51  # "Guanine N3"
Setting atom values ...
  0 settings made for charge
    set type 307 charge 0.34  # "Guanine C4"
Setting atom values ...
  0 settings made for charge
    set type 308 charge 0.12  # "Guanine C5"
Setting atom values ...
  0 settings made for charge
    set type 309 charge 0.52  # "Guanine C6"
Setting atom values ...
  0 settings made for charge
    set type 310 charge 0.38  # "Guanine HN1"
Setting atom values ...
  0 settings made for charge
    set type 311 charge -0.8  # "Guanine NH2-"
Setting atom values ...
  0 settings made for charge
    set type 312 charge 0.4  # "Guanine NH2-"
Setting atom values ...
  0 settings made for charge
    set type 313 charge -0.51  # "Guanine O6"
Setting atom values ...
  0 settings made for charge
    set type 314 charge -0.01  # "9-Me A & 9-Me-G CH3-"
Setting atom values ...
  0 settings made for charge
    set type 315 charge 0.12  # "9-Me-A & 9-Me-G CH3-"
Setting atom values ...
  0 settings made for charge
    set type 316 charge -0.01  # "1-Me-U & 1-Me-T CH3-"
Setting atom values ...
  0 settings made for charge
    set type 317 charge 0.14  # "1-Me-U & 1-Me-T CH3-"
Setting atom values ...
  0 settings made for charge
    set type 318 charge -0.01  # "1-Me-Cytosine CH3-"
Setting atom values ...
  0 settings made for charge
    set type 319 charge 0.13  # "1-Me-Cytosine CH3-"
Setting atom values ...
  0 settings made for charge
    set type 320 charge -0.64  # "CytosineH+ N1"
Setting atom values ...
  0 settings made for charge
    set type 321 charge 0.65  # "CytosineH+ C2"
Setting atom values ...
  0 settings made for charge
    set type 322 charge -0.74  # "CytosineH+ N3"
Setting atom values ...
  0 settings made for charge
    set type 323 charge 0.66  # "CytosineH+ C4"
Setting atom values ...
  0 settings made for charge
    set type 324 charge -0.06  # "CytosineH+ C5"
Setting atom values ...
  0 settings made for charge
    set type 325 charge 0.1  # "CytosineH+ C6"
Setting atom values ...
  0 settings made for charge
    set type 326 charge 0.49  # "CytosineH+ HN1"
Setting atom values ...
  0 settings made for charge
    set type 327 charge -0.3  # "CytosineH+ O2"
Setting atom values ...
  0 settings made for charge
    set type 328 charge 0.48  # "CytosineH+ HN3"
Setting atom values ...
  0 settings made for charge
    set type 329 charge -0.81  # "CytosineH+ NH2-"
Setting atom values ...
  0 settings made for charge
    set type 330 charge 0.46  # "CytosineH+ NH2- (N3)"
Setting atom values ...
  0 settings made for charge
    set type 331 charge 0.43  # "CytosineH+ NH2- (C5)"
Setting atom values ...
  0 settings made for charge
    set type 332 charge 0.14  # "CytosineH+ HC5"
Setting atom values ...
  0 settings made for charge
    set type 333 charge 0.14  # "CytosineH+ HC6"
Setting atom values ...
  0 settings made for charge
    set type 334 charge 0.01  # "1-Me-CytosineH+ CH3-"
Setting atom values ...
  0 settings made for charge
    set type 335 charge 0.16  # "1-Me-CytosineH+ CH3-"
Setting atom values ...
  0 settings made for charge
    set type 336 charge 0.78  # "DiMePhosphate P (UA)"
Setting atom values ...
  0 settings made for charge
    set type 337 charge -0.66  # "DiMePhosphate O=P-O (UA)"
Setting atom values ...
  0 settings made for charge
    set type 338 charge -0.43  # "DiMePhosphate CH3-O (UA)"
Setting atom values ...
  0 settings made for charge
    set type 339 charge 0.2  # "DiMePhosphate CH3-O (UA)"
Setting atom values ...
  0 settings made for charge
    set type 340 charge 0.18  # "Trifluorothymine CF3-"
Setting atom values ...
  0 settings made for charge
    set type 341 charge -0.06  # "Chloroalkene Cl2-C="
Setting atom values ...
  0 settings made for charge
    set type 342 charge 0.12  # "Chloroalkene Cl2-C="
Setting atom values ...
  0 settings made for charge
    set type 343 charge -1.0  # "Fluoride Ion F-"
Setting atom values ...
  0 settings made for charge
    set type 344 charge -1.0  # "Chloride Ion Cl-"
Setting atom values ...
  0 settings made for charge
    set type 345 charge -1.0  # "Bromide Ion Br-"
Setting atom values ...
  0 settings made for charge
    set type 346 charge -1.0  # "Iodide Ion I-"
Setting atom values ...
  0 settings made for charge
    set type 347 charge 1.0  # "Ammonium Ion NH4+ (UA)"
Setting atom values ...
  0 settings made for charge
    set type 348 charge 1.0  # "Lithium Ion Li+"
Setting atom values ...
  0 settings made for charge
    set type 349 charge 1.0  # "Sodium Ion Na+"
Setting atom values ...
  0 settings made for charge
    set type 350 charge 1.0  # "Potassium Ion K+"
Setting atom values ...
  0 settings made for charge
    set type 351 charge 1.0  # "Rubidium Ion Rb+"
Setting atom values ...
  0 settings made for charge
    set type 352 charge 1.0  # "Cesium Ion Cs+"
Setting atom values ...
  0 settings made for charge
    set type 353 charge 2.0  # "Magnesium Ion Mg+2"
Setting atom values ...
  0 settings made for charge
    set type 354 charge 2.0  # "Calcium Ion Ca+2"
Setting atom values ...
  0 settings made for charge
    set type 355 charge 2.0  # "Strontium Ion Sr+2"
Setting atom values ...
  0 settings made for charge
    set type 356 charge 2.0  # "Barium Ion Ba+2"
Setting atom values ...
  0 settings made for charge
    set type 357 charge -0.4  # "Methyl Thiolate CH3S-"
Setting atom values ...
  0 settings made for charge
    set type 358 charge 0.1  # "Methyl Thiolate CH3S-"
Setting atom values ...
  0 settings made for charge
    set type 359 charge -0.9  # "Methyl Thiolate CH3S-"
Setting atom values ...
  0 settings made for charge
    set type 360 charge -0.2  # "Methoxide CH3O-"
Setting atom values ...
  0 settings made for charge
    set type 361 charge 0.06  # "Methoxide CH3O-"
Setting atom values ...
  0 settings made for charge
    set type 362 charge -0.98  # "Methoxide CH3O-"
Setting atom values ...
  0 settings made for charge
    set type 363 charge -1.07  # "Nitrile Anion CNCH2-"
Setting atom values ...
  0 settings made for charge
    set type 364 charge 0.19  # "Nitrile Anion CNCH2-"
Setting atom values ...
  0 settings made for charge
    set type 365 charge 0.51  # "Nitrile Anion CNCH2-"
Setting atom values ...
  0 settings made for charge
    set type 366 charge -0.82  # "Nitrile Anion CNCH2-"
Setting atom values ...
  0 settings made for charge
    set type 367 charge -0.3  # "Me Amine Anion CH3NH-"
Setting atom values ...
  0 settings made for charge
    set type 368 charge 0.07  # "Me Amine Anion CH3NH-"
Setting atom values ...
  0 settings made for charge
    set type 369 charge -1.31  # "Me Amine Anion CH3NH-"
Setting atom values ...
  0 settings made for charge
    set type 370 charge 0.4  # "Methyl Amine Anion"
Setting atom values ...
  0 settings made for charge
    set type 371 charge -0.4  # "Ethyl Anion CH3-CH2-"
Setting atom values ...
  0 settings made for charge
    set type 372 charge 0.08  # "Ethyl Anion CH3-CH2-"
Setting atom values ...
  0 settings made for charge
    set type 373 charge 0.0  # "Ethyl Anion CH3-CH2-"
Setting atom values ...
  0 settings made for charge
    set type 374 charge 0.07  # "Ethyl Anion CH3-CH2-"
Setting atom values ...
  0 settings made for charge
    set type 375 charge -0.98  # "Ethyl Anion CH3-CH2-"
Setting atom values ...
  0 settings made for charge
    set type 376 charge -1.3  # "Hydroxide Ion OH-"
Setting atom values ...
  0 settings made for charge
    set type 377 charge 0.3  # "Hydroxide Ion OH-"
Setting atom values ...
  0 settings made for charge
    set type 378 charge 2.5  # "Uranyl Ion UO2+"
Setting atom values ...
  0 settings made for charge
    set type 379 charge -0.25  # "Uranyl Ion UO2+"
Setting atom values ...
  0 settings made for charge
    set type 380 charge -0.865  # "GTP O-(POn)2"
Setting atom values ...
  0 settings made for charge
    set type 381 charge 1.62  # "DiMe Phosphate P"
Setting atom values ...
  0 settings made for charge
    set type 382 charge -0.92  # "DiMe Phosphate O=P-O"
Setting atom values ...
  0 settings made for charge
    set type 383 charge -0.6  # "DiMe Phosphate CH3-O"
Setting atom values ...
  0 settings made for charge
    set type 384 charge 0.3  # "DiMe Phosphate CH3-O"
Setting atom values ...
  0 settings made for charge
    set type 385 charge -0.03  # "DiMe Phosphate CH3-O"
Setting atom values ...
  0 settings made for charge
    set type 386 charge 1.92  # "Me Phosphate P"
Setting atom values ...
  0 settings made for charge
    set type 387 charge -1.12  # "Me Phosphate O=PO2"
Setting atom values ...
  0 settings made for charge
    set type 388 charge -0.7  # "Me Phosphate CH3-O"
Setting atom values ...
  0 settings made for charge
    set type 389 charge 0.44  # "Me Phosphate CH3-O"
Setting atom values ...
  0 settings made for charge
    set type 390 charge -0.1  # "Me Phosphate CH3-O"
Setting atom values ...
  0 settings made for charge
    set type 391 charge 1.62  # "Me MePhosphonate P"
Setting atom values ...
  0 settings made for charge
    set type 392 charge -0.97  # "Me MePhosphonate O=P-O"
Setting atom values ...
  0 settings made for charge
    set type 393 charge -0.63  # "Me MePhosphonate CH3-O"
Setting atom values ...
  0 settings made for charge
    set type 394 charge 0.28  # "Me MePhosphonate CH3-O"
Setting atom values ...
  0 settings made for charge
    set type 395 charge -0.02  # "Me MePhosphonate CH3-O"
Setting atom values ...
  0 settings made for charge
    set type 396 charge -0.51  # "Me MePhosphonate CH3-P"
Setting atom values ...
  0 settings made for charge
    set type 397 charge 0.08  # "Me MePhosphonate CH3-P"
Setting atom values ...
  0 settings made for charge
    set type 398 charge -0.14  # "Bz MePhosphonate Cipso"
Setting atom values ...
  0 settings made for charge
    set type 399 charge 0.32  # "Bz MePhosphonate CH3-O"
Setting atom values ...
  0 settings made for charge
    set type 400 charge 0.02  # "Bz MePhosphonate CH3-O"
Setting atom values ...
  0 settings made for charge
    set type 401 charge -0.04  # "Me BzPhosphonate Cipso"
Setting atom values ...
  0 settings made for charge
    set type 402 charge -0.47  # "Me BzPhosphonate CH3-P"
Setting atom values ...
  0 settings made for charge
    set type 403 charge 0.12  # "Me BzPhosphonate CH3-P"
Setting atom values ...
  0 settings made for charge
    set type 404 charge 0.14  # "Ph Phosphate Cipso"
Setting atom values ...
  0 settings made for charge
    set type 405 charge 0.24  # "Barbiturate C6(R2)"
Setting atom values ...
  0 settings made for charge
    set type 406 charge 0.51  # "Ester -COOR"
Setting atom values ...
  0 settings made for charge
    set type 407 charge -0.43  # "Ester C=O"
Setting atom values ...
  0 settings made for charge
    set type 408 charge -0.33  # "Ester CO-O-R"
Setting atom values ...
  0 settings made for charge
    set type 409 charge 0.16  # "Methyl Ester -OCH3"
Setting atom values ...
  0 settings made for charge
    set type 410 charge 0.03  # "Ester -OCH<"
Setting atom values ...
  0 settings made for charge
    set type 411 charge 0.635  # "Benzoic Acid -COOH"
Setting atom values ...
  0 settings made for charge
    set type 412 charge 0.625  # "Aryl Ester -COOR"
Setting atom values ...
  0 settings made for charge
    set type 413 charge 0.135  # "Phenyl Ester Cipso"
Setting atom values ...
  0 settings made for charge
    set type 414 charge -0.215  # "Phenyl Ester -OPh"
Setting atom values ...
  0 settings made for charge
    set type 415 charge 1.48  # "Sulfonamide -SO2N<"
Setting atom values ...
  0 settings made for charge
    set type 416 charge -0.68  # "Sulfonamide -SO2N<"
Setting atom values ...
  0 settings made for charge
    set type 417 charge -0.54  # "Sulfonamide CH3-S"
Setting atom values ...
  0 settings made for charge
    set type 418 charge 0.18  # "Sulfonamide CH3-S"
Setting atom values ...
  0 settings made for charge
    set type 419 charge -1.0  # "Sulfonamide -SO2NH2"
Setting atom values ...
  0 settings made for charge
    set type 420 charge 0.44  # "Sulfonamide -SO2NH2"
Setting atom values ...
  0 settings made for charge
    set type 421 charge -0.8  # "Sulfonamide -SO2NHR"
Setting atom values ...
  0 settings made for charge
    set type 422 charge 0.41  # "Sulfonamide -SO2NHR"
Setting atom values ...
  0 settings made for charge
    set type 423 charge 0.18  # "N-Me Sulfonamide CH3-"
Setting atom values ...
  0 settings made for charge
    set type 424 charge 0.03  # "N-Me Sulfonamide CH3-"
Setting atom values ...
  0 settings made for charge
    set type 425 charge 0.39  # "Sulfonamide N-CH2-R"
Setting atom values ...
  0 settings made for charge
    set type 426 charge -0.06  # "Sulfonamide N-CH2-R"
Setting atom values ...
  0 settings made for charge
    set type 427 charge -0.18  # "N-Et Sulfonamide CH3-"
Setting atom values ...
  0 settings made for charge
    set type 428 charge 0.06  # "N-Et Sulfonamide CH3-"
Setting atom values ...
  0 settings made for charge
    set type 429 charge 0.0  # "Aryl Sulfonamide C-SO2N"
Setting atom values ...
  0 settings made for charge
    set type 430 charge 0.03  # "Aryl Sulfoxide C-S=O"
Setting atom values ...
  0 settings made for charge
    set type 431 charge 0.19  # "Et Ester -OCH2R"
Setting atom values ...
  0 settings made for charge
    set type 432 charge 0.22  # "i-Pr Ester -OCHR2"
Setting atom values ...
  0 settings made for charge
    set type 433 charge 0.25  # "t-Bu Ester -OCR3"
Setting atom values ...
  0 settings made for charge
    set type 434 charge 1.374  # "Sulfone R-SO2-R"
Setting atom values ...
  0 settings made for charge
    set type 435 charge -0.687  # "Sulfone R-SO2-R"
Setting atom values ...
  0 settings made for charge
    set type 436 charge 0.245  # "Alkyl Aryl Sulfoxide"
Setting atom values ...
  0 settings made for charge
    set type 437 charge 0.13  # "Dialkyl Sulfoxide"
Setting atom values ...
  0 settings made for charge
    set type 438 charge -0.42  # "Sulfoxide R-SO-R"
Setting atom values ...
  0 settings made for charge
    set type 439 charge -0.035  # "Sulfoxide CH3-SO-R"
Setting atom values ...
  0 settings made for charge
    set type 440 charge 0.025  # "Sulfoxide -CH2-SO-R"
Setting atom values ...
  0 settings made for charge
    set type 441 charge 0.075  # "TRP CG"
Setting atom values ...
  0 settings made for charge
    set type 442 charge -0.055  # "TRP CD"
Setting atom values ...
  0 settings made for charge
    set type 443 charge 0.13  # "TRP CE"
Setting atom values ...
  0 settings made for charge
    set type 444 charge -0.57  # "TRP NE, HID ND & HIE NE"
Setting atom values ...
  0 settings made for charge
    set type 445 charge 0.42  # "TRP HNE & HID/HIE HN"
Setting atom values ...
  0 settings made for charge
    set type 446 charge -0.005  # "HIS CB"
Setting atom values ...
  0 settings made for charge
    set type 447 charge 0.295  # "HID & HIE CE1"
Setting atom values ...
  0 settings made for charge
    set type 448 charge -0.015  # "HID CD2 & HIE CG"
Setting atom values ...
  0 settings made for charge
    set type 449 charge 0.015  # "HID CG & HIE CD2"
Setting atom values ...
  0 settings made for charge
    set type 450 charge 0.385  # "HIP CE1"
Setting atom values ...
  0 settings made for charge
    set type 451 charge 0.215  # "HIP CG & CD2"
Setting atom values ...
  0 settings made for charge
    set type 452 charge -0.49  # "HID NE & HIE ND"
Setting atom values ...
  0 settings made for charge
    set type 453 charge -0.54  # "HIP ND & NE"
Setting atom values ...
  0 settings made for charge
    set type 454 charge 0.46  # "HIP HND & HNE"
Setting atom values ...
  0 settings made for charge
    set type 455 charge -0.115  # "TRP CD1"
Setting atom values ...
  0 settings made for charge
    set type 456 charge 0.055  # "i-Pr Benzene -CHMe2"
Setting atom values ...
  0 settings made for charge
    set type 457 charge 0.115  # "t-Bu Benzene -CMe3"
Setting atom values ...
  0 settings made for charge
    set type 458 charge -0.03  # "Vinyl Ether =CH-OR"
Setting atom values ...
  0 settings made for charge
    set type 459 charge 0.085  # "Vinyl Ether =CR-OR"
Setting atom values ...
  0 settings made for charge
    set type 460 charge 0.0  # "Biphenyl C1"
Setting atom values ...
  0 settings made for charge
    set type 461 charge -0.678  # "Pyridine N"
Setting atom values ...
  0 settings made for charge
    set type 462 charge 0.473  # "Pyridine C1"
Setting atom values ...
  0 settings made for charge
    set type 463 charge -0.447  # "Pyridine C2"
Setting atom values ...
  0 settings made for charge
    set type 464 charge 0.227  # "Pyridine C3"
Setting atom values ...
  0 settings made for charge
    set type 465 charge 0.012  # "Pyridine H1"
Setting atom values ...
  0 settings made for charge
    set type 466 charge 0.155  # "Pyridine H2"
Setting atom values ...
  0 settings made for charge
    set type 467 charge 0.065  # "Pyridine H3"
Setting atom values ...
  0 settings made for charge
    set type 468 charge -0.468  # "Pyrazine N"
Setting atom values ...
  0 settings made for charge
    set type 469 charge 0.192  # "Pyrazine CH"
Setting atom values ...
  0 settings made for charge
    set type 470 charge 0.042  # "Pyrazine CH"
Setting atom values ...
  0 settings made for charge
    set type 471 charge -0.839  # "Pyrimidine N"
Setting atom values ...
  0 settings made for charge
    set type 472 charge 0.874  # "Pyrimidine C2"
Setting atom values ...
  0 settings made for charge
    set type 473 charge 0.653  # "Pyrimidine C4"
Setting atom values ...
  0 settings made for charge
    set type 474 charge -0.689  # "Pyrimidine C5"
Setting atom values ...
  0 settings made for charge
    set type 475 charge -0.032  # "Pyrimidine HC2"
Setting atom values ...
  0 settings made for charge
    set type 476 charge 0.011  # "Pyrimidine HC4"
Setting atom values ...
  0 settings made for charge
    set type 477 charge 0.197  # "Pyrimidine HC5"
Setting atom values ...
  0 settings made for charge
    set type 478 charge -0.331  # "Pyridazine N"
Setting atom values ...
  0 settings made for charge
    set type 479 charge 0.378  # "Pyridazine C3"
Setting atom values ...
  0 settings made for charge
    set type 480 charge -0.16  # "Pyridazine C4"
Setting atom values ...
  0 settings made for charge
    set type 481 charge -0.009  # "Pyridazine HC3"
Setting atom values ...
  0 settings made for charge
    set type 482 charge 0.122  # "Pyridazine HC4"
Setting atom values ...
  0 settings made for charge
    set type 483 charge -0.239  # "Pyrrole N"
Setting atom values ...
  0 settings made for charge
    set type 484 charge -0.163  # "Pyrrole C2"
Setting atom values ...
  0 settings made for charge
    set type 485 charge -0.149  # "Pyrrole C3"
Setting atom values ...
  0 settings made for charge
    set type 486 charge 0.317  # "Pyrrole HN"
Setting atom values ...
  0 settings made for charge
    set type 487 charge 0.155  # "Pyrrole HC2"
Setting atom values ...
  0 settings made for charge
    set type 488 charge 0.118  # "Pyrrole HC3"
Setting atom values ...
  0 settings made for charge
    set type 489 charge -0.059  # "Pyrazole N1"
Setting atom values ...
  0 settings made for charge
    set type 490 charge -0.491  # "Pyrazole N2"
Setting atom values ...
  0 settings made for charge
    set type 491 charge 0.246  # "Pyrazole C3"
Setting atom values ...
  0 settings made for charge
    set type 492 charge -0.32  # "Pyrazole C4"
Setting atom values ...
  0 settings made for charge
    set type 493 charge -0.034  # "Pyrazole C5"
Setting atom values ...
  0 settings made for charge
    set type 494 charge 0.301  # "Pyrazole HN1"
Setting atom values ...
  0 settings made for charge
    set type 495 charge 0.072  # "Pyrazole HC3"
Setting atom values ...
  0 settings made for charge
    set type 496 charge 0.15  # "Pyrazole HC4"
Setting atom values ...
  0 settings made for charge
    set type 497 charge 0.135  # "Pyrazole HC5"
Setting atom values ...
  0 settings made for charge
    set type 498 charge -0.257  # "Imidazole N1"
Setting atom values ...
  0 settings made for charge
    set type 499 charge 0.275  # "Imidazole C2"
Setting atom values ...
  0 settings made for charge
    set type 500 charge -0.563  # "Imidazole N3"
Setting atom values ...
  0 settings made for charge
    set type 501 charge 0.185  # "Imidazole C4"
Setting atom values ...
  0 settings made for charge
    set type 502 charge -0.286  # "Imidazole C5"
Setting atom values ...
  0 settings made for charge
    set type 503 charge 0.306  # "Imidazole HN1"
Setting atom values ...
  0 settings made for charge
    set type 504 charge 0.078  # "Imidazole HC2"
Setting atom values ...
  0 settings made for charge
    set type 505 charge 0.075  # "Imidazole HC4"
Setting atom values ...
  0 settings made for charge
    set type 506 charge 0.187  # "Imidazole HC5"
Setting atom values ...
  0 settings made for charge
    set type 507 charge -0.19  # "Furan O"
Setting atom values ...
  0 settings made for charge
    set type 508 charge -0.019  # "Furan C2"
Setting atom values ...
  0 settings made for charge
    set type 509 charge -0.154  # "Furan C3"
Setting atom values ...
  0 settings made for charge
    set type 510 charge 0.142  # "Furan HC2"
Setting atom values ...
  0 settings made for charge
    set type 511 charge 0.126  # "Furan HC3"
Setting atom values ...
  0 settings made for charge
    set type 512 charge -0.257  # "Oxazole O"
Setting atom values ...
  0 settings made for charge
    set type 513 charge 0.511  # "Oxazole C2"
Setting atom values ...
  0 settings made for charge
    set type 514 charge -0.59  # "Oxazole N"
Setting atom values ...
  0 settings made for charge
    set type 515 charge 0.169  # "Oxazole C4"
Setting atom values ...
  0 settings made for charge
    set type 516 charge -0.148  # "Oxazole C5"
Setting atom values ...
  0 settings made for charge
    set type 517 charge 0.043  # "Oxazole HC2"
Setting atom values ...
  0 settings made for charge
    set type 518 charge 0.091  # "Oxazole HC4"
Setting atom values ...
  0 settings made for charge
    set type 519 charge 0.181  # "Oxazole HC5"
Setting atom values ...
  0 settings made for charge
    set type 520 charge -0.122  # "Isoxazole O"
Setting atom values ...
  0 settings made for charge
    set type 521 charge -0.413  # "Isoxazole N"
Setting atom values ...
  0 settings made for charge
    set type 522 charge 0.405  # "Isoxazole C3"
Setting atom values ...
  0 settings made for charge
    set type 523 charge -0.455  # "Isoxazole C4"
Setting atom values ...
  0 settings made for charge
    set type 524 charge 0.25  # "Isoxazole C5"
Setting atom values ...
  0 settings made for charge
    set type 525 charge 0.053  # "Isoxazole HC3"
Setting atom values ...
  0 settings made for charge
    set type 526 charge 0.184  # "Isoxazole HC4"
Setting atom values ...
  0 settings made for charge
    set type 527 charge 0.098  # "Isoxazole HC5"
Setting atom values ...
  0 settings made for charge
    set type 528 charge -0.5  # "Indole N1"
Setting atom values ...
  0 settings made for charge
    set type 529 charge 0.001  # "Indole C2"
Setting atom values ...
  0 settings made for charge
    set type 530 charge -0.39  # "Indole C3"
Setting atom values ...
  0 settings made for charge
    set type 531 charge -0.27  # "Indole C4"
Setting atom values ...
  0 settings made for charge
    set type 532 charge -0.127  # "Indole C5"
Setting atom values ...
  0 settings made for charge
    set type 533 charge -0.108  # "Indole C6"
Setting atom values ...
  0 settings made for charge
    set type 534 charge -0.258  # "Indole C7"
Setting atom values ...
  0 settings made for charge
    set type 535 charge 0.22  # "Indole C8"
Setting atom values ...
  0 settings made for charge
    set type 536 charge 0.225  # "Indole C9"
Setting atom values ...
  0 settings made for charge
    set type 537 charge 0.376  # "Indole HN1"
Setting atom values ...
  0 settings made for charge
    set type 538 charge 0.147  # "Indole HC2"
Setting atom values ...
  0 settings made for charge
    set type 539 charge 0.172  # "Indole HC3"
Setting atom values ...
  0 settings made for charge
    set type 540 charge 0.155  # "Indole HC4"
Setting atom values ...
  0 settings made for charge
    set type 541 charge 0.107  # "Indole HC5"
Setting atom values ...
  0 settings made for charge
    set type 542 charge 0.11  # "Indole HC6"
Setting atom values ...
  0 settings made for charge
    set type 543 charge 0.14  # "Indole HC7"
Setting atom values ...
  0 settings made for charge
    set type 544 charge -0.694  # "Quinoline N1"
Setting atom values ...
  0 settings made for charge
    set type 545 charge 0.425  # "Quinoline C2"
Setting atom values ...
  0 settings made for charge
    set type 546 charge -0.359  # "Quinoline C3"
Setting atom values ...
  0 settings made for charge
    set type 547 charge -0.008  # "Quinoline C4"
Setting atom values ...
  0 settings made for charge
    set type 548 charge -0.197  # "Quinoline C5"
Setting atom values ...
  0 settings made for charge
    set type 549 charge -0.112  # "Quinoline C6"
Setting atom values ...
  0 settings made for charge
    set type 550 charge -0.07  # "Quinoline C7"
Setting atom values ...
  0 settings made for charge
    set type 551 charge -0.307  # "Quinoline C8"
Setting atom values ...
  0 settings made for charge
    set type 552 charge 0.563  # "Quinoline C9"
Setting atom values ...
  0 settings made for charge
    set type 553 charge -0.051  # "Quinoline C10"
Setting atom values ...
  0 settings made for charge
    set type 554 charge 0.028  # "Quinoline HC2"
Setting atom values ...
  0 settings made for charge
    set type 555 charge 0.146  # "Quinoline HC3"
Setting atom values ...
  0 settings made for charge
    set type 556 charge 0.119  # "Quinoline HC4"
Setting atom values ...
  0 settings made for charge
    set type 557 charge 0.133  # "Quinoline HC5"
Setting atom values ...
  0 settings made for charge
    set type 558 charge 0.113  # "Quinoline HC6"
Setting atom values ...
  0 settings made for charge
    set type 559 charge 0.114  # "Quinoline HC7"
Setting atom values ...
  0 settings made for charge
    set type 560 charge 0.157  # "Quinoline HC8"
Setting atom values ...
  0 settings made for charge
    set type 561 charge -0.76  # "Purine N1"
Setting atom values ...
  0 settings made for charge
    set type 562 charge 0.679  # "Purine C2"
Setting atom values ...
  0 settings made for charge
    set type 563 charge -0.788  # "Purine N3"
Setting atom values ...
  0 settings made for charge
    set type 564 charge 0.736  # "Purine C4"
Setting atom values ...
  0 settings made for charge
    set type 565 charge 0.038  # "Purine C5"
Setting atom values ...
  0 settings made for charge
    set type 566 charge 0.343  # "Purine C6"
Setting atom values ...
  0 settings made for charge
    set type 567 charge -0.642  # "Purine N7"
Setting atom values ...
  0 settings made for charge
    set type 568 charge 0.452  # "Purine C8"
Setting atom values ...
  0 settings made for charge
    set type 569 charge -0.682  # "Purine N9"
Setting atom values ...
  0 settings made for charge
    set type 570 charge 0.024  # "Purine HC2"
Setting atom values ...
  0 settings made for charge
    set type 571 charge 0.101  # "Purine HC6"
Setting atom values ...
  0 settings made for charge
    set type 572 charge 0.086  # "Purine HC8"
Setting atom values ...
  0 settings made for charge
    set type 573 charge 0.413  # "Purine HN9"
Setting atom values ...
  0 settings made for charge
    set type 574 charge -0.03  # "Thiazole S"
Setting atom values ...
  0 settings made for charge
    set type 575 charge 0.242  # "Thiazole C2"
Setting atom values ...
  0 settings made for charge
    set type 576 charge -0.515  # "Thiazole N"
Setting atom values ...
  0 settings made for charge
    set type 577 charge 0.228  # "Thiazole C4"
Setting atom values ...
  0 settings made for charge
    set type 578 charge -0.299  # "Thiazole C5"
Setting atom values ...
  0 settings made for charge
    set type 579 charge 0.101  # "Thiazole HC2"
Setting atom values ...
  0 settings made for charge
    set type 580 charge 0.068  # "Thiazole HC4"
Setting atom values ...
  0 settings made for charge
    set type 581 charge 0.205  # "Thiazole HC5"
Setting atom values ...
  0 settings made for charge
    set type 582 charge -0.951  # "1,3,5-Triazine N"
Setting atom values ...
  0 settings made for charge
    set type 583 charge 0.965  # "1,3,5-Triazine CH"
Setting atom values ...
  0 settings made for charge
    set type 584 charge -0.014  # "1,3,5-Triazine CH"
Setting atom values ...
  0 settings made for charge
    set type 585 charge 0.13  # "Serotonin C5-OH"
Setting atom values ...
  0 settings made for charge
    set type 586 charge 0.052  # "Serotonin CH2 on C3"
Setting atom values ...
  0 settings made for charge
    set type 587 charge -0.599  # "1,10-Phenanthroline N"
Setting atom values ...
  0 settings made for charge
    set type 588 charge 0.392  # "1,10-Phenanthroline C2"
Setting atom values ...
  0 settings made for charge
    set type 589 charge -0.348  # "1,10-Phenanthroline C3"
Setting atom values ...
  0 settings made for charge
    set type 590 charge 0.02  # "1,10-Phenanthroline C4"
Setting atom values ...
  0 settings made for charge
    set type 591 charge -0.042  # "1,10-Phenanthroline C12"
Setting atom values ...
  0 settings made for charge
    set type 592 charge 0.347  # "1,10-Phenanthroline C11"
Setting atom values ...
  0 settings made for charge
    set type 593 charge -0.196  # "1,10-Phenanthroline C5"
Setting atom values ...
  0 settings made for charge
    set type 594 charge 0.032  # "1,10-Phenanthroline HC2"
Setting atom values ...
  0 settings made for charge
    set type 595 charge 0.146  # "1,10-Phenanthroline HC3"
Setting atom values ...
  0 settings made for charge
    set type 596 charge 0.108  # "1,10-Phenanthroline HC4"
Setting atom values ...
  0 settings made for charge
    set type 597 charge 0.14  # "1,10-Phenanthroline HC5"
Setting atom values ...
  0 settings made for charge
    set type 598 charge 0.122  # "1-Methylimidazole N1"
Setting atom values ...
  250 settings made for charge
    set type 599 charge 0.166  # "1-Methylimidazole C2"
Setting atom values ...
  125 settings made for charge
    set type 600 charge -0.58  # "1-Methylimidazole N3"
Setting atom values ...
  0 settings made for charge
    set type 601 charge 0.173  # "1-Methylimidazole C4"
Setting atom values ...
  0 settings made for charge
    set type 602 charge -0.395  # "1-Methylimidazole C5"
Setting atom values ...
  250 settings made for charge
    set type 603 charge -0.199  # "1-Methylimidazole CH3-"
Setting atom values ...
  250 settings made for charge
    set type 604 charge 0.118  # "1-Methylimidazole HC2"
Setting atom values ...
  125 settings made for charge
    set type 605 charge 0.093  # "1-Methylimidazole HC4"
Setting atom values ...
  125 settings made for charge
    set type 606 charge 0.208  # "1-Methylimidazole HC5"
Setting atom values ...
  125 settings made for charge
    set type 607 charge 0.098  # "1-Methylimidazole CH3-"
Setting atom values ...
  750 settings made for charge
    set type 608 charge -0.139  # "1-Et Imidazole RCH2-"
Setting atom values ...
  0 settings made for charge
    set type 609 charge -0.079  # "1-iPr Imidazole R2CH-"
Setting atom values ...
  0 settings made for charge
    set type 610 charge 0.099  # "1-MeO-Me-Imidazole CH2"
Setting atom values ...
  0 settings made for charge
    set type 611 charge -0.168  # "2-Me Pyridine CH3"
Setting atom values ...
  0 settings made for charge
    set type 612 charge -0.108  # "2-Et Pyridine CH2"
Setting atom values ...
  0 settings made for charge
    set type 613 charge -0.189  # "3-Me Pyridazine CH3"
Setting atom values ...
  0 settings made for charge
    set type 614 charge -0.129  # "3-Et Pyridazine CH2"
Setting atom values ...
  0 settings made for charge
    set type 615 charge -0.169  # "4-Me Pyrimidine CH3"
Setting atom values ...
  0 settings made for charge
    set type 616 charge -0.109  # "4-Et Pyrimidine CH2"
Setting atom values ...
  0 settings made for charge
    set type 617 charge -0.138  # "2-Me Pyrazine CH3"
Setting atom values ...
  0 settings made for charge
    set type 618 charge -0.078  # "2-Et Pyrazine CH2"
Setting atom values ...
  0 settings made for charge
    set type 619 charge -0.025  # "2-Me Pyrrole CH3"
Setting atom values ...
  0 settings made for charge
    set type 620 charge 0.035  # "2-Et Pyrrole CH2"
Setting atom values ...
  0 settings made for charge
    set type 621 charge -0.038  # "2-Me Furan CH3"
Setting atom values ...
  0 settings made for charge
    set type 622 charge 0.022  # "2-Et Furan CH2"
Setting atom values ...
  0 settings made for charge
    set type 623 charge -0.334  # "6-Mercaptopurine SH"
Setting atom values ...
  0 settings made for charge
    set type 624 charge 0.255  # "6-Mercaptopurine SH"
Setting atom values ...
  0 settings made for charge
    set type 625 charge 0.523  # "6-Mercaptopurine C6"
Setting atom values ...
  0 settings made for charge
    set type 626 charge 0.5  # "Beta-Lactam N-C=O"
Setting atom values ...
  0 settings made for charge
    set type 627 charge -0.14  # "Beta-Lactam N-C=O"
Setting atom values ...
  0 settings made for charge
    set type 628 charge 0.2275  # "Penicillin CH-N"
Setting atom values ...
  0 settings made for charge
    set type 629 charge 0.14  # "Penicillin CH-CO"
Setting atom values ...
  0 settings made for charge
    set type 630 charge -0.008  # "3-Me Indole CH3"
Setting atom values ...
  0 settings made for charge
    set type 631 charge 0.588  # "2-Phenyl Pyridine C2"
Setting atom values ...
  0 settings made for charge
    set type 632 charge -0.103  # "2-Phenyl Pyridine C2'"
Setting atom values ...
  0 settings made for charge
    set type 633 charge -0.332  # "2-Phenyl Pyridine C3"
Setting atom values ...
  0 settings made for charge
    set type 634 charge 0.04  # "2-Phenyl Pyridine C3'"
Setting atom values ...
  0 settings made for charge
    set type 635 charge 0.342  # "2-Phenyl Pyridine C4"
Setting atom values ...
  0 settings made for charge
    set type 636 charge -0.05  # "2-Phenyl Pyridine C4'"
Setting atom values ...
  0 settings made for charge
    set type 637 charge -0.205  # "Diphenyl Thioether S"
Setting atom values ...
  0 settings made for charge
    set type 638 charge 3.0  # "Actinium Ion Ac+3"
Setting atom values ...
  0 settings made for charge
    set type 639 charge 4.0  # "Thorium Ion Th+4"
Setting atom values ...
  0 settings made for charge
    set type 640 charge 3.0  # "Americium Ion Am+3"
Setting atom values ...
  0 settings made for charge
    set type 641 charge 0.619  # "t-Butyl Cation C+"
Setting atom values ...
  0 settings made for charge
    set type 642 charge -0.395  # "t-Butyl Cation CH3-"
Setting atom values ...
  0 settings made for charge
    set type 643 charge 0.174  # "t-Butyl Cation CH3-"
Setting atom values ...
  0 settings made for charge
    set type 644 charge 3.0  # "Lanthanum Ion La+3"
Setting atom values ...
  0 settings made for charge
    set type 645 charge 3.0  # "Neodymium Ion Nd+3"
Setting atom values ...
  0 settings made for charge
    set type 646 charge 3.0  # "Europium Ion Eu+3"
Setting atom values ...
  0 settings made for charge
    set type 647 charge 3.0  # "Gadolinium Ion Gd+3"
Setting atom values ...
  0 settings made for charge
    set type 648 charge 3.0  # "Ytterbium Ion Yb+3"
Setting atom values ...
  0 settings made for charge
    set type 649 charge -0.344  # "Cl..CH3..Cl- Sn2 TS"
Setting atom values ...
  0 settings made for charge
    set type 650 charge -0.628  # "Cl..CH3..Cl- Sn2 TS"
Setting atom values ...
  0 settings made for charge
    set type 651 charge 0.2  # "Cl..CH3..Cl- Sn2 TS"
Setting atom values ...
  0 settings made for charge
    set type 652 charge -0.12  # "Cyclopropane -CH2-"
Setting atom values ...
  0 settings made for charge
    set type 653 charge -0.06  # "Cyclopropane -CHR-"
Setting atom values ...
  0 settings made for charge
    set type 654 charge 0.0  # "Cyclopropane -CR2-"
Setting atom values ...
  0 settings made for charge
    set type 655 charge -0.23  # "Cyclopentadienyl Anion"
Setting atom values ...
  0 settings made for charge
    set type 656 charge 0.03  # "Cyclopentadienyl Anion"
Setting atom values ...
  0 settings made for charge
    set type 657 charge -0.099  # "Cyclopentadienyl Radical"
Setting atom values ...
  0 settings made for charge
    set type 658 charge 0.099  # "Cyclopentadienyl Radical"
Setting atom values ...
  0 settings made for charge
    set type 659 charge 0.22  # "Fluorobenzene CF"
Setting atom values ...
  0 settings made for charge
    set type 660 charge -0.22  # "Fluorobenzene CF"
Setting atom values ...
  0 settings made for charge
    set type 661 charge 0.13  # "Hexafluorobenzene CF"
Setting atom values ...
  0 settings made for charge
    set type 662 charge -0.13  # "Hexafluorobenzene CF"
Setting atom values ...
  0 settings made for charge
    set type 663 charge -0.22  # "Bromide -CH2-Br (UA)"
Setting atom values ...
  0 settings made for charge
    set type 664 charge 0.22  # "Bromide -CH2-Br (UA)"
Setting atom values ...
  0 settings made for charge
    set type 665 charge 0.15  # "TrifluoroMeBenzene C-CF3"
Setting atom values ...
  0 settings made for charge
    set type 666 charge 0.45  # "TrifluoroMeBenzene CF3-"
Setting atom values ...
  0 settings made for charge
    set type 667 charge -0.2  # "TrifluoroMeBenzene CF3-"
Setting atom values ...
  0 settings made for charge
    set type 668 charge 0.2  # "Difluorobenzene CF"
Setting atom values ...
  0 settings made for charge
    set type 669 charge -0.2  # "Difluorobenzene CF"
Setting atom values ...
  0 settings made for charge
    set type 670 charge 0.2  # "Bromobenzene CBr"
Setting atom values ...
  0 settings made for charge
    set type 671 charge -0.2  # "Bromobenzene CBr"
Setting atom values ...
  0 settings made for charge
    set type 672 charge 0.1  # "Iodobenzene CI"
Setting atom values ...
  0 settings made for charge
    set type 673 charge -0.1  # "Iodobenzene CI"
Setting atom values ...
  0 settings made for charge
    set type 674 charge 0.055  # "cProp/cBut Benzene C-Ar"
Setting atom values ...
  0 settings made for charge
    set type 675 charge -0.22  # "Thiophenol SH"
Setting atom values ...
  0 settings made for charge
    set type 676 charge 0.065  # "Thiophenol C-SH"
Setting atom values ...
  0 settings made for charge
    set type 677 charge 0.013  # "Benzamidine CG"
Setting atom values ...
  0 settings made for charge
    set type 678 charge -0.106  # "Benzamidine CD"
Setting atom values ...
  0 settings made for charge
    set type 679 charge -0.09  # "Benzamidine CE"
Setting atom values ...
  0 settings made for charge
    set type 680 charge -0.119  # "Benzamidine CZ"
Setting atom values ...
  0 settings made for charge
    set type 681 charge 0.141  # "Benzamidine HCD"
Setting atom values ...
  0 settings made for charge
    set type 682 charge 0.129  # "Benzamidine HCE"
Setting atom values ...
  0 settings made for charge
    set type 683 charge 0.827  # "Benzamidine C+"
Setting atom values ...
  0 settings made for charge
    set type 684 charge -0.885  # "Benzamidine -NH2"
Setting atom values ...
  0 settings made for charge
    set type 685 charge 0.426  # "Benzamidine H1-N"
Setting atom values ...
  0 settings made for charge
    set type 686 charge 0.465  # "Benzamidine H2-N"
Setting atom values ...
  0 settings made for charge
    set type 687 charge 0.119  # "Benzamidine HCG"
Setting atom values ...
  0 settings made for charge
    set type 688 charge -0.02  # "Neutral MeGdn CH3-"
Setting atom values ...
  0 settings made for charge
    set type 689 charge 0.04  # "Neutral ARG CD"
Setting atom values ...
  0 settings made for charge
    set type 690 charge -0.62  # "Neutral ARG NE"
Setting atom values ...
  0 settings made for charge
    set type 691 charge -0.785  # "Neutral ARG N1 (HN=C)"
Setting atom values ...
  0 settings made for charge
    set type 692 charge -0.785  # "Neutral ARG N2 (H2N-C)"
Setting atom values ...
  0 settings made for charge
    set type 693 charge 0.55  # "Neutral ARG CZ (>C=)"
Setting atom values ...
  0 settings made for charge
    set type 694 charge -0.56  # "Alkyl Nitrile -CN"
Setting atom values ...
  0 settings made for charge
    set type 695 charge 0.46  # "Alkyl Nitrile -CN"
Setting atom values ...
  0 settings made for charge
    set type 696 charge -0.08  # "Acetonitrile CH3-CN"
Setting atom values ...
  0 settings made for charge
    set type 697 charge -0.02  # "Alkyl Nitrile RCH2-CN"
Setting atom values ...
  0 settings made for charge
    set type 698 charge 0.04  # "Alkyl Nitrile R2CH-CN"
Setting atom values ...
  0 settings made for charge
    set type 699 charge 0.1  # "Alkyl Nitrile R3C-CN"
Setting atom values ...
  0 settings made for charge
    set type 700 charge 0.06  # "Alkyl Nitrile H-C-CN"
Setting atom values ...
  0 settings made for charge
    set type 701 charge 0.54  # "Nitroalkane -NO2"
Setting atom values ...
  0 settings made for charge
    set type 702 charge -0.37  # "Nitroalkane -NO2"
Setting atom values ...
  0 settings made for charge
    set type 703 charge 0.02  # "Nitromethane CH3-NO2"
Setting atom values ...
  0 settings made for charge
    set type 704 charge 0.06  # "Nitroalkane H-C-NO2"
Setting atom values ...
  0 settings made for charge
    set type 705 charge 0.08  # "Nitroalkane RCH2-NO2"
Setting atom values ...
  0 settings made for charge
    set type 706 charge 0.14  # "Nitroalkane R2CH-NO2"
Setting atom values ...
  0 settings made for charge
    set type 707 charge 0.2  # "Nitroalkane R3C-NO2"
Setting atom values ...
  0 settings made for charge
    set type 708 charge 0.65  # "Nitrobenzene -NO2"
Setting atom values ...
  0 settings made for charge
    set type 709 charge 0.09  # "Nitrobenzene C-NO2"
Setting atom values ...
  0 settings made for charge
    set type 710 charge 0.035  # "Benzonitrile -CH2-"
Setting atom values ...
  0 settings made for charge
    set type 711 charge -0.9  # "Neutral Benzamidine N"
Setting atom values ...
  0 settings made for charge
    set type 712 charge -0.5  # "Propylene Carbonate C=O"
Setting atom values ...
  0 settings made for charge
    set type 713 charge 0.86  # "Propylene Carbonate C=O"
Setting atom values ...
  0 settings made for charge
    set type 714 charge -0.45  # "Propylene Carbonate C-O"
Setting atom values ...
  0 settings made for charge
    set type 715 charge 0.21  # "Propylene Carbonate CH2"
Setting atom values ...
  0 settings made for charge
    set type 716 charge 0.16  # "Propylene Carbonate CH"
Setting atom values ...
  0 settings made for charge
    set type 717 charge -0.1  # "Propylene Carbonate CH3"
Setting atom values ...
  0 settings made for charge
    set type 718 charge 0.03  # "Propylene Carbonate CH2"
Setting atom values ...
  0 settings made for charge
    set type 719 charge 0.03  # "Propylene Carbonate CH"
Setting atom values ...
  0 settings made for charge
    set type 720 charge 0.06  # "Propylene Carbonate CH3"
Setting atom values ...
  0 settings made for charge
    set type 721 charge -0.78  # "GTP O-(POn)2"
Setting atom values ...
  0 settings made for charge
    set type 722 charge 0.9684  # "Phosphonium R4P+"
Setting atom values ...
  0 settings made for charge
    set type 723 charge -0.5081  # "Phosphonium CH3-PR3+"
Setting atom values ...
  0 settings made for charge
    set type 724 charge -0.008  # "Phosphonium RCH2-PR3+"
Setting atom values ...
  0 settings made for charge
    set type 725 charge 0.172  # "Phosphonium CH3-PR3+"
Setting atom values ...
  0 settings made for charge
    set type 726 charge 1.34  # "Hexafluorophosphate Ion"
Setting atom values ...
  0 settings made for charge
    set type 727 charge -0.39  # "Hexafluorophosphate Ion"
Setting atom values ...
  0 settings made for charge
    set type 728 charge 0.794  # "Nitrate Ion NO3-"
Setting atom values ...
  0 settings made for charge
    set type 729 charge -0.598  # "Nitrate Ion NO3-"
Setting atom values ...
  0 settings made for charge
    set type 730 charge -0.9  # "Amine RNH2"
Setting atom values ...
  0 settings made for charge
    set type 731 charge -0.78  # "Amine R2NH"
Setting atom values ...
  0 settings made for charge
    set type 732 charge -0.63  # "Amine R3N"
Setting atom values ...
  0 settings made for charge
    set type 733 charge 0.0  # "Amine CH3-NH2"
Setting atom values ...
  0 settings made for charge
    set type 734 charge 0.02  # "Amine CH3-NHR"
Setting atom values ...
  0 settings made for charge
    set type 735 charge 0.03  # "Amine CH3-NR2"
Setting atom values ...
  0 settings made for charge
    set type 736 charge 0.06  # "Amine RCH2-NH2"
Setting atom values ...
  0 settings made for charge
    set type 737 charge 0.08  # "Amine RCH2-NHR"
Setting atom values ...
  0 settings made for charge
    set type 738 charge 0.09  # "Amine RCH2-NR2"
Setting atom values ...
  0 settings made for charge
    set type 739 charge 0.36  # "Amine RNH2"
Setting atom values ...
  0 settings made for charge
    set type 740 charge 0.38  # "Amine R2NH"
Setting atom values ...
  0 settings made for charge
    set type 741 charge 0.06  # "Amine H-C-N"
Setting atom values ...
  0 settings made for charge
    set type 742 charge 0.12  # "Amine R2CH-NH2"
Setting atom values ...
  0 settings made for charge
    set type 743 charge 0.18  # "Amine R3C-NH2"
Setting atom values ...
  0 settings made for charge
    set type 744 charge 0.14  # "Amine R2CH-NHR"
Setting atom values ...
  0 settings made for charge
    set type 745 charge 0.15  # "Amine R2CH-NR2"
Setting atom values ...
  0 settings made for charge
    set type 746 charge 0.18  # "Aniline C-NH2"
Setting atom values ...
  0 settings made for charge
    set type 747 charge 0.2  # "N-Me Aniline C-NHR"
Setting atom values ...
  0 settings made for charge
    set type 748 charge 0.21  # "N-DiMe Aniline C-NR2"
Setting atom values ...
  0 settings made for charge
    set type 749 charge 0.115  # "Benzyl Amine -CH2NH2"
Setting atom values ...
  0 settings made for charge
    set type 750 charge 0.175  # "Benzyl Amine -CHRNH2"
Setting atom values ...
  0 settings made for charge
    set type 751 charge 0.235  # "Benzyl Amine -CR2NH2"
Setting atom values ...
  0 settings made for charge
    set type 752 charge 0.195  # "Benzyl Ether -CH2OR"
Setting atom values ...
  0 settings made for charge
    set type 753 charge 0.1525  # "Benzyl Sulfide -CH2SH"
Setting atom values ...
  0 settings made for charge
    set type 754 charge 0.135  # "Benzyl Amine -CH2NHR"
Setting atom values ...
  0 settings made for charge
    set type 755 charge -0.21  # "Alkyne HCC-"
Setting atom values ...
  0 settings made for charge
    set type 756 charge 0.2  # "Alkyne HCC-"
Setting atom values ...
  0 settings made for charge
    set type 757 charge 0.01  # "Alkyne RCCH R w/ 2/3 H"
Setting atom values ...
  0 settings made for charge
    set type 758 charge 0.01  # "Alkyne RCCH R w/ 1 H"
Setting atom values ...
  0 settings made for charge
    set type 759 charge 0.01  # "Alkyne RCCH R w/ O H/Ph"
Setting atom values ...
  0 settings made for charge
    set type 760 charge 0.06  # "Alkyne H-C-CC-"
Setting atom values ...
  0 settings made for charge
    set type 761 charge 0.45  # "A & G Sugar C1'"
Setting atom values ...
  0 settings made for charge
    set type 762 charge 0.48  # "C Sugar C1'"
Setting atom values ...
  0 settings made for charge
    set type 763 charge 0.51  # "U & T Sugar C1'"
Setting atom values ...
  0 settings made for charge
    set type 764 charge -0.655  # "Sugar O5'"
Setting atom values ...
  0 settings made for charge
    set type 765 charge 0.39  # "Sugar H3' (-OH)"
Setting atom values ...
  0 settings made for charge
    set type 766 charge -0.5  # "A & G Nucleoside N9"
Setting atom values ...
  0 settings made for charge
    set type 767 charge -0.56  # "C Nucleoside N1"
Setting atom values ...
  0 settings made for charge
    set type 768 charge -0.6  # "U & T Nucleoside N1"
Setting atom values ...
  0 settings made for charge
    set type 769 charge 0.0  # "Alkyne RCCR"
Setting atom values ...
  0 settings made for charge
    set type 770 charge -0.1  # "Ammonium R3NH+"
Setting atom values ...
  0 settings made for charge
    set type 771 charge 0.29  # "Ammonium R3NH+"
Setting atom values ...
  0 settings made for charge
    set type 772 charge 0.09  # "Ammonium CH3-NHR2+"
Setting atom values ...
  0 settings made for charge
    set type 773 charge 0.15  # "Ammonium RCH2-NHR2+"
Setting atom values ...
  0 settings made for charge
    set type 774 charge 0.21  # "Ammonium R2CH-NHR2+"
Setting atom values ...
  0 settings made for charge
    set type 775 charge 0.27  # "Ammonium R3C-NHR2+"
Setting atom values ...
  0 settings made for charge
    set type 776 charge 0.096  # "2-Phenyl Furan C2"
Setting atom values ...
  0 settings made for charge
    set type 777 charge -0.039  # "2-Phenyl Furan C3"
Setting atom values ...
  0 settings made for charge
    set type 778 charge 0.027  # "2-Phenyl Furan C2'"
Setting atom values ...
  0 settings made for charge
    set type 779 charge 0.011  # "2-Phenyl Furan C3'"
Setting atom values ...
  0 settings made for charge
    set type 780 charge 0.074  # "GLY Zwitterion HA"
Setting atom values ...
  0 settings made for charge
    set type 781 charge -0.029  # "GLY Zwitterion CA"
Setting atom values ...
  0 settings made for charge
    set type 782 charge 0.7  # "GLY Zwitterion C"
Setting atom values ...
  0 settings made for charge
    set type 783 charge -0.352  # "GLY Zwitterion N"
Setting atom values ...
  0 settings made for charge
    set type 784 charge -0.709  # "GLY Zwitterion O"
Setting atom values ...
  0 settings made for charge
    set type 785 charge 0.317  # "GLY Zwitterion HN"
Setting atom values ...
  0 settings made for charge
    set type 786 charge -0.22  # "Alkyl Fluoride C-F"
Setting atom values ...
  0 settings made for charge
    set type 787 charge 0.02  # "Alkyl Fluoride RCH2-F"
Setting atom values ...
  0 settings made for charge
    set type 788 charge 0.1  # "Alkyl Fluoride H-C-F"
Setting atom values ...
  0 settings made for charge
    set type 789 charge 0.12  # "Alkyl Fluoride R2CH-F"
Setting atom values ...
  0 settings made for charge
    set type 790 charge 0.22  # "Alkyl Fluoride R3C-F"
Setting atom values ...
  0 settings made for charge
    set type 791 charge 0.36  # "Perfluoroalkane CF3-"
Setting atom values ...
  0 settings made for charge
    set type 792 charge 0.24  # "Perfluoroalkane -CF2-"
Setting atom values ...
  0 settings made for charge
    set type 793 charge 0.12  # "Perfluoroalkane >CF-"
Setting atom values ...
  0 settings made for charge
    set type 794 charge 0.48  # "Tetrafluoromethane CF4"
Setting atom values ...
  0 settings made for charge
    set type 795 charge -0.12  # "Perfluoroalkane C-F"
Setting atom values ...
  0 settings made for charge
    set type 796 charge 0.25  # "DifluoroMeBenzene -CHF2"
Setting atom values ...
  0 settings made for charge
    set type 797 charge 0.15  # "DifluoroMeBenzene -CHF2"
Setting atom values ...
  0 settings made for charge
    set type 798 charge -0.08  # "Fluoroacetate FCH2-COO-"
Setting atom values ...
  0 settings made for charge
    set type 799 charge -0.106  # "Chloroacetate ClCH2-COO-"
Setting atom values ...
  0 settings made for charge
    set type 800 charge -0.2  # "Alkyl Chloride C-Cl"
Setting atom values ...
  0 settings made for charge
    set type 801 charge -0.006  # "Alkyl Chloride RCH2-Cl"
Setting atom values ...
  0 settings made for charge
    set type 802 charge 0.103  # "Alkyl Chloride H-C-Cl"
Setting atom values ...
  0 settings made for charge
    set type 803 charge 0.097  # "Alkyl Chloride R2CH-Cl"
Setting atom values ...
  0 settings made for charge
    set type 804 charge 0.2  # "Alkyl Chloride R3C-Cl"
Setting atom values ...
  0 settings made for charge
    set type 805 charge -0.2  # "Alkyl Bromide C-Br"
Setting atom values ...
  0 settings made for charge
    set type 806 charge -0.006  # "Alkyl Bromide RCH2-Br"
Setting atom values ...
  0 settings made for charge
    set type 807 charge 0.103  # "Alkyl Bromide H-C-Br"
Setting atom values ...
  0 settings made for charge
    set type 808 charge 0.097  # "Alkyl Bromide R2CH-Br"
Setting atom values ...
  0 settings made for charge
    set type 809 charge 0.2  # "Alkyl Bromide R3C-Br"
Setting atom values ...
  0 settings made for charge
    set type 810 charge -0.08  # "Acyl Fluoride F-C=O"
Setting atom values ...
  0 settings made for charge
    set type 811 charge -0.08  # "Acyl Chloride Cl-C=O"
Setting atom values ...
  0 settings made for charge
    set type 812 charge -0.08  # "Acyl Bromide Br-C=O"
Setting atom values ...
  0 settings made for charge
    set type 813 charge 0.1  # "Trifluoroanisole C-OCF3"
Setting atom values ...
  0 settings made for charge
    set type 814 charge -0.25  # "Trifluoroanisole -OCF3"
Setting atom values ...
  0 settings made for charge
    set type 815 charge 0.6  # "Trifluoroanisole -OCF3"
Setting atom values ...
  0 settings made for charge
    set type 816 charge -0.15  # "Trifluoroanisole -OCF3"
Setting atom values ...
  0 settings made for charge
    set type 817 charge -0.025  # "N-Me,N-PhAcetamide N"
Setting atom values ...
  0 settings made for charge
    set type 818 charge -0.045  # "N-Me,N-PhAcetamide Cipso"
Setting atom values ...
  0 settings made for charge
    set type 819 charge 0.145  # "Benzyl Amine -CH2NR2"
Setting atom values ...
  0 settings made for charge
    set type 820 charge 0.888  # "Alkyl Hydroxamic Acid C"
Setting atom values ...
  0 settings made for charge
    set type 821 charge 1.003  # "Aryl Hydroxamic Acid C"
Setting atom values ...
  0 settings made for charge
    set type 822 charge -0.658  # "Hydroxamic Acid C=O"
Setting atom values ...
  0 settings made for charge
    set type 823 charge -0.634  # "Hydroxamic Acid N"
Setting atom values ...
  0 settings made for charge
    set type 824 charge 0.411  # "Hydroxamic Acid HN"
Setting atom values ...
  0 settings made for charge
    set type 825 charge -0.442  # "Hydroxamic Acid OH"
Setting atom values ...
  0 settings made for charge
    set type 826 charge 0.435  # "Hydroxamic Acid OH"
Setting atom values ...
  0 settings made for charge
    set type 827 charge 0.225  # "Benzyl Ether -CHROR"
Setting atom values ...
  0 settings made for charge
    set type 828 charge 0.255  # "Benzyl Ether -CR2OR"
Setting atom values ...
  0 settings made for charge
    set type 829 charge -0.034  # "3-Phenyl Pyrrole C3"
Setting atom values ...
  0 settings made for charge
    set type 830 charge 0.003  # "3-Phenyl Pyrrole C3'"
Setting atom values ...
  0 settings made for charge
    set type 831 charge 0.3  # "4-Phenyl Imidazole C4"
Setting atom values ...
  0 settings made for charge
    set type 832 charge -0.04  # "4-Phenyl Imidazole C4'"
Setting atom values ...
  0 settings made for charge
    set type 833 charge -0.0575  # "Diphenylmethane Cipso"
Setting atom values ...
  0 settings made for charge
    set type 834 charge 2.0  # "Zinc Ion Zn+2"
Setting atom values ...
  0 settings made for charge
    set type 835 charge -0.07  # "Alkyl Iodide RCH2-I"
Setting atom values ...
  0 settings made for charge
    set type 836 charge 0.03  # "Alkyl Iodide R2CH-I"
Setting atom values ...
  0 settings made for charge
    set type 837 charge 0.13  # "Alkyl Iodide R3C-I"
Setting atom values ...
  0 settings made for charge
    set type 838 charge -0.13  # "Alkyl Iodide C-I"
Setting atom values ...
  0 settings made for charge
    set type 839 charge 0.1  # "Alkyl Iodide H-C-I"
Setting atom values ...
  0 settings made for charge
    set type 840 charge -0.685  # "N-Ph Sulfonamide -NHPh"
Setting atom values ...
  0 settings made for charge
    set type 841 charge 0.155  # "N-Ph Sulfonamide Cipso"
Setting atom values ...
  0 settings made for charge
    set type 842 charge -0.1  # "Benzoate C-COO-"
Setting atom values ...
  0 settings made for charge
    set type 843 charge -0.427  # "N-Phenyl Urea N"
Setting atom values ...
  0 settings made for charge
    set type 844 charge 0.218  # "N-Phenyl Urea Cipso"
Setting atom values ...
  0 settings made for charge
    set type 845 charge 0.6  # "Tertiary Amide -CO-NR2"
Setting atom values ...
  0 settings made for charge
    set type 846 charge -0.6  # "Tertiary Amide -CO-NR2"
Setting atom values ...
  0 settings made for charge
    set type 847 charge -0.36  # "Tertiary Amide -CO-NR2"
Setting atom values ...
  0 settings made for charge
    set type 848 charge 0.0  # "Tertiary Amide -NRCH3"
Setting atom values ...
  0 settings made for charge
    set type 849 charge 0.06  # "Tertiary Amide -NRCH2R"
Setting atom values ...
  0 settings made for charge
    set type 850 charge 0.12  # "Tertiary Amide -NRCHR2"
Setting atom values ...
  0 settings made for charge
    set type 851 charge 0.18  # "Tertiary Amide -NRCR3"
Setting atom values ...
  0 settings made for charge
    set type 852 charge 0.06  # "Tertiary Amide H-C-N"
Setting atom values ...
  0 settings made for charge
    set type 853 charge 0.57  # "Tertiary Formamide C=O"
Setting atom values ...
  0 settings made for charge
    set type 854 charge -0.57  # "Tertiary Formamide C=O"
Setting atom values ...
  0 settings made for charge
    set type 855 charge 0.0  # "Tertiary Formamide H-C=O"
Setting atom values ...
  0 settings made for charge
    set type 856 charge 0.02  # "B2-Peptide CA"
Setting atom values ...
  0 settings made for charge
    set type 857 charge -0.04  # "B3-Peptide CA Main/N-Ter"
Setting atom values ...
  0 settings made for charge
    set type 858 charge 0.0  # "B3-Pep CB GLY Main/C-Ter"
Setting atom values ...
  0 settings made for charge
    set type 859 charge 0.06  # "B3-Pep CB ALA Main/C-Ter"
Setting atom values ...
  0 settings made for charge
    set type 860 charge -0.07  # "B3-Pep CB PRO Main/C-Ter"
Setting atom values ...
  0 settings made for charge
    set type 861 charge -0.14  # "B3-Peptide CA C-Ter"
Setting atom values ...
  0 settings made for charge
    set type 862 charge 0.17  # "B3-Peptide CB ALA N-Ter"
Setting atom values ...
  0 settings made for charge
    set type 863 charge 0.11  # "B3-Peptide CB GLY N-Ter"
Setting atom values ...
  0 settings made for charge
    set type 864 charge 0.15  # "B3-Peptide CB PRO N-Ter"
Setting atom values ...
  0 settings made for charge
    set type 865 charge 0.17  # "B3-Peptide CE PRO N-Ter"
Setting atom values ...
  0 settings made for charge
    set type 866 charge 1.0  # "Alkyl Silane R4Si"
Setting atom values ...
  0 settings made for charge
    set type 867 charge 0.85  # "Alkyl Silane R3SiH"
Setting atom values ...
  0 settings made for charge
    set type 868 charge 0.7  # "Alkyl Silane R2SiH2"
Setting atom values ...
  0 settings made for charge
    set type 869 charge 0.55  # "Alkyl Silane RSiH3"
Setting atom values ...
  0 settings made for charge
    set type 870 charge -0.1  # "Alkyl Silane H-C-Si"
Setting atom values ...
  0 settings made for charge
    set type 871 charge -0.43  # "Methyl Silane CH3-Si"
Setting atom values ...
  0 settings made for charge
    set type 872 charge -0.37  # "Alkyl Silane RCH2-Si"
Setting atom values ...
  0 settings made for charge
    set type 873 charge -0.31  # "Alkyl Silane R2CH-Si"
Setting atom values ...
  0 settings made for charge
    set type 874 charge -0.25  # "Alkyl Silane R3C-Si"
Setting atom values ...
  0 settings made for charge
    set type 875 charge -1.0  # "Fluoride Ion (GBSA)"
Setting atom values ...
  0 settings made for charge
    set type 876 charge -1.0  # "Chloride Ion (GBSA)"
Setting atom values ...
  125 settings made for charge
    set type 877 charge -1.0  # "Bromide Ion (GBSA)"
Setting atom values ...
  0 settings made for charge
    set type 878 charge -1.0  # "Iodide Ion (GBSA)"
Setting atom values ...
  0 settings made for charge
    set type 879 charge 1.0  # "Lithium Ion (GBSA)"
Setting atom values ...
  0 settings made for charge
    set type 880 charge 1.0  # "Sodium Ion (GBSA)"
Setting atom values ...
  0 settings made for charge
    set type 881 charge 1.0  # "Potassium Ion (GBSA)"
Setting atom values ...
  0 settings made for charge
    set type 882 charge 1.0  # "Rubidium Ion (GBSA)"
Setting atom values ...
  0 settings made for charge
    set type 883 charge 1.0  # "Cesium Ion (GBSA)"
Setting atom values ...
  0 settings made for charge
    set type 884 charge 2.0  # "Magnesium Ion (GBSA)"
Setting atom values ...
  0 settings made for charge
    set type 885 charge 2.0  # "Calcium Ion (GBSA)"
Setting atom values ...
  0 settings made for charge
    set type 886 charge 2.0  # "Strontium Ion (GBSA)"
Setting atom values ...
  0 settings made for charge
    set type 887 charge 2.0  # "Barium Ion (GBSA)"
Setting atom values ...
  0 settings made for charge
    set type 888 charge -0.05  # "Ammonium CH3-NR3+"
Setting atom values ...
  0 settings made for charge
    set type 889 charge 0.05  # "Ammonium RCH2-NR3+"
Setting atom values ...
  0 settings made for charge
    set type 890 charge 0.15  # "Ammonium R2CH-NR3+"
Setting atom values ...
  0 settings made for charge
    set type 891 charge 0.25  # "Ammonium R3C-NR3+"
Setting atom values ...
  0 settings made for charge
    set type 892 charge 0.1  # "Ammonium CH3-NR3+"
Setting atom values ...
  0 settings made for charge
    set type 893 charge 0.115  # "Anilinium Ar-NR3+"
Setting atom values ...
  0 settings made for charge
    set type 894 charge 0.135  # "Anilinium C-NR3+"
Setting atom values ...
  0 settings made for charge
    set type 895 charge 0.015  # "Anilinium Ar-NHR2+"
Setting atom values ...
  0 settings made for charge
    set type 896 charge 0.155  # "Anilinium C-NHR2+"
Setting atom values ...
  0 settings made for charge
    set type 897 charge 0.0  # "Triene R2-C= (mid C=C)"
Setting atom values ...
  0 settings made for charge
    set type 898 charge -0.115  # "Triene RH-C= (mid C=C)"
Setting atom values ...
  0 settings made for charge
    set type 899 charge 0.15  # "Allene/Ketene H-C=C=X"
Setting atom values ...
  0 settings made for charge
    set type 900 charge -0.25  # "Allene/Ketene H2C=C=X"
Setting atom values ...
  0 settings made for charge
    set type 901 charge -0.1  # "Allene/Ketene HRC=C=X"
Setting atom values ...
  0 settings made for charge
    set type 902 charge 0.05  # "Allene/Ketene R2C=C=X"
Setting atom values ...
  0 settings made for charge
    set type 903 charge -0.1  # "Allene =C="
Setting atom values ...
  0 settings made for charge
    set type 904 charge 0.2  # "Ketene =C="
Setting atom values ...
  0 settings made for charge
    set type 905 charge -0.25  # "Ketene C=O"
Setting atom values ...
  0 settings made for charge
    set type 906 charge 0.088  # "N-Me-HIS CB"
Setting atom values ...
  0 settings made for charge

# ------------------------------- Settings Section --------------------------

include         "system.in.settings"
    pair_coeff 1 1  0.061 2.94
    pair_coeff 2 2  0.118 3.905
    pair_coeff 3 3  0.105 3.75
    pair_coeff 4 4  0.21 2.96
    pair_coeff 5 5  0.17 3.0
    pair_coeff 6 6  0.16 3.91
    pair_coeff 7 7  0.0 0.0
    pair_coeff 8 8  0.294 3.73
    pair_coeff 9 9  0.207 3.775
    pair_coeff 10 10  0.175 3.905
    pair_coeff 11 11  0.16 3.91
    pair_coeff 12 12  0.145 3.96
    pair_coeff 13 13  0.118 3.905
    pair_coeff 14 14  0.14 3.85
    pair_coeff 15 15  0.08 3.85
    pair_coeff 16 16  0.115 3.8
    pair_coeff 17 17  0.11 3.75
    pair_coeff 18 18  0.05 3.8
    pair_coeff 19 19  0.105 3.75
    pair_coeff 20 20  0.17 3.07
    pair_coeff 21 21  0.0 0.0
    pair_coeff 22 22  0.207 3.775
    pair_coeff 23 23  0.118 3.905
    pair_coeff 24 24  0.25 3.7
    pair_coeff 25 25  0.25 3.55
    pair_coeff 26 26  0.25 3.55
    pair_coeff 27 27  0.25 3.55
    pair_coeff 28 28  0.0 0.0
    pair_coeff 29 29  0.0 0.0
    pair_coeff 30 30  0.207 3.775
    pair_coeff 31 31  0.118 3.905
    pair_coeff 32 32  0.17 3.8
    pair_coeff 33 33  0.118 3.8
    pair_coeff 34 34  0.17 3.8
    pair_coeff 35 35  0.118 3.8
    pair_coeff 36 36  0.17 3.2
    pair_coeff 37 37  0.15 3.65
    pair_coeff 38 38  0.207 3.775
    pair_coeff 39 39  0.08 3.85
    pair_coeff 40 40  0.05 3.8
    pair_coeff 41 41  0.17 3.0
    pair_coeff 42 42  0.17 3.8
    pair_coeff 43 43  0.118 3.8
    pair_coeff 44 44  0.118 3.8
    pair_coeff 45 45  0.3 3.4
    pair_coeff 46 46  0.08 3.8
    pair_coeff 47 47  0.3 3.47
    pair_coeff 48 48  0.05 3.8
    pair_coeff 49 49  0.266 3.47
    pair_coeff 50 50  0.395 3.56
    pair_coeff 51 51  0.28 2.93
    pair_coeff 52 52  0.16 3.81
    pair_coeff 53 53  0.21 2.96
    pair_coeff 54 54  0.17 3.25
    pair_coeff 55 55  0.115 3.8
    pair_coeff 56 56  0.17 3.8
    pair_coeff 57 57  0.0 0.0
    pair_coeff 58 58  0.02 2.556
    pair_coeff 59 59  0.069 2.78
    pair_coeff 60 60  0.2339 3.401
    pair_coeff 61 61  0.317 3.624
    pair_coeff 62 62  0.433 3.935
    pair_coeff 63 63  0.1521 3.15061
    pair_coeff 64 64  0.0 0.0
    pair_coeff 65 65  0.155 3.15365
    pair_coeff 66 66  0.0 0.0
    pair_coeff 67 67  0.0 0.0
    pair_coeff 68 68  0.15 3.176
    pair_coeff 69 69  0.0 0.0
    pair_coeff 70 70  0.1 3.27
    pair_coeff 71 71  0.0 0.0
    pair_coeff 72 72  0.0 0.0
    pair_coeff 73 73  0.16 3.12
    pair_coeff 74 74  0.0 0.0
    pair_coeff 75 75  0.0 0.0
    pair_coeff 76 76  0.1554 3.16557
    pair_coeff 77 77  0.0 0.0
    pair_coeff 78 78  0.17 3.42
    pair_coeff 79 79  0.0 0.0
    pair_coeff 80 80  0.066 3.5
    pair_coeff 81 81  0.066 3.5
    pair_coeff 82 82  0.066 3.5
    pair_coeff 83 83  0.066 3.5
    pair_coeff 84 84  0.066 3.5
    pair_coeff 85 85  0.03 2.5
    pair_coeff 86 86  0.076 3.55
    pair_coeff 87 87  0.076 3.55
    pair_coeff 88 88  0.076 3.55
    pair_coeff 89 89  0.03 2.42
    pair_coeff 90 90  0.07 3.55
    pair_coeff 91 91  0.03 2.42
    pair_coeff 92 92  0.07 3.55
    pair_coeff 93 93  0.066 3.5
    pair_coeff 94 94  0.066 3.5
    pair_coeff 95 95  0.076 3.55
    pair_coeff 96 96  0.17 3.12
    pair_coeff 97 97  0.0 0.0
    pair_coeff 98 98  0.03 2.5
    pair_coeff 99 99  0.066 3.5
    pair_coeff 100 100  0.066 3.5
    pair_coeff 101 101  0.066 3.5
    pair_coeff 102 102  0.066 3.5
    pair_coeff 103 103  0.062 3.25
    pair_coeff 104 104  0.17 3.07
    pair_coeff 105 105  0.0 0.0
    pair_coeff 106 106  0.061 2.94
    pair_coeff 107 107  0.03 2.5
    pair_coeff 108 108  0.07 3.55
    pair_coeff 109 109  0.17 3.07
    pair_coeff 110 110  0.0 0.0
    pair_coeff 111 111  0.17 3.07
    pair_coeff 112 112  0.0 0.0
    pair_coeff 113 113  0.17 3.07
    pair_coeff 114 114  0.0 0.0
    pair_coeff 115 115  0.066 3.5
    pair_coeff 116 116  0.066 3.5
    pair_coeff 117 117  0.066 3.5
    pair_coeff 118 118  0.03 2.5
    pair_coeff 119 119  0.14 2.9
    pair_coeff 120 120  0.076 3.55
    pair_coeff 121 121  0.14 2.9
    pair_coeff 122 122  0.14 2.9
    pair_coeff 123 123  0.066 3.5
    pair_coeff 124 124  0.066 3.5
    pair_coeff 125 125  0.066 3.5
    pair_coeff 126 126  0.066 3.5
    pair_coeff 127 127  0.03 2.5
    pair_coeff 128 128  0.14 2.9
    pair_coeff 129 129  0.17 3.07
    pair_coeff 130 130  0.0 0.0
    pair_coeff 131 131  0.066 3.5
    pair_coeff 132 132  0.03 2.5
    pair_coeff 133 133  0.066 3.5
    pair_coeff 134 134  0.03 2.5
    pair_coeff 135 135  0.066 3.5
    pair_coeff 136 136  0.03 2.5
    pair_coeff 137 137  0.066 3.5
    pair_coeff 138 138  0.03 2.5
    pair_coeff 139 139  0.066 3.5
    pair_coeff 140 140  0.066 3.5
    pair_coeff 141 141  0.07 3.55
    pair_coeff 142 142  0.25 3.55
    pair_coeff 143 143  0.25 3.7
    pair_coeff 144 144  0.25 3.55
    pair_coeff 145 145  0.25 3.55
    pair_coeff 146 146  0.0 0.0
    pair_coeff 147 147  0.0 0.0
    pair_coeff 148 148  0.066 3.5
    pair_coeff 149 149  0.066 3.5
    pair_coeff 150 150  0.066 3.5
    pair_coeff 151 151  0.066 3.5
    pair_coeff 152 152  0.066 3.5
    pair_coeff 153 153  0.066 3.5
    pair_coeff 154 154  0.066 3.5
    pair_coeff 155 155  0.066 3.5
    pair_coeff 156 156  0.066 3.5
    pair_coeff 157 157  0.066 3.5
    pair_coeff 158 158  0.066 3.5
    pair_coeff 159 159  0.066 3.5
    pair_coeff 160 160  0.066 3.5
    pair_coeff 161 161  0.066 3.5
    pair_coeff 162 162  0.066 3.5
    pair_coeff 163 163  0.07 3.55
    pair_coeff 164 164  0.25 3.55
    pair_coeff 165 165  0.066 3.5
    pair_coeff 166 166  0.066 3.5
    pair_coeff 167 167  0.066 3.5
    pair_coeff 168 168  0.3 3.4
    pair_coeff 169 169  0.076 3.55
    pair_coeff 170 170  0.07 3.55
    pair_coeff 171 171  0.066 3.5
    pair_coeff 172 172  0.066 3.5
    pair_coeff 173 173  0.105 3.75
    pair_coeff 174 174  0.105 3.75
    pair_coeff 175 175  0.105 3.75
    pair_coeff 176 176  0.105 3.75
    pair_coeff 177 177  0.105 3.75
    pair_coeff 178 178  0.21 2.96
    pair_coeff 179 179  0.17 3.25
    pair_coeff 180 180  0.17 3.25
    pair_coeff 181 181  0.17 3.25
    pair_coeff 182 182  0.0 0.0
    pair_coeff 183 183  0.0 0.0
    pair_coeff 184 184  0.066 3.5
    pair_coeff 185 185  0.066 3.5
    pair_coeff 186 186  0.066 3.5
    pair_coeff 187 187  0.066 3.5
    pair_coeff 188 188  0.066 3.5
    pair_coeff 189 189  0.105 3.75
    pair_coeff 190 190  0.21 2.96
    pair_coeff 191 191  0.17 3.25
    pair_coeff 192 192  0.0 0.0
    pair_coeff 193 193  0.17 3.25
    pair_coeff 194 194  0.105 3.75
    pair_coeff 195 195  0.21 2.96
    pair_coeff 196 196  0.0 0.0
    pair_coeff 197 197  0.02 2.5
    pair_coeff 198 198  0.066 3.5
    pair_coeff 199 199  0.066 3.5
    pair_coeff 200 200  0.066 3.5
    pair_coeff 201 201  0.066 3.5
    pair_coeff 202 202  0.07 3.55
    pair_coeff 203 203  0.15 3.65
    pair_coeff 204 204  0.17 3.2
    pair_coeff 205 205  0.07 3.55
    pair_coeff 206 206  0.3 3.4
    pair_coeff 207 207  0.17 3.25
    pair_coeff 208 208  0.07 3.55
    pair_coeff 209 209  0.105 3.75
    pair_coeff 210 210  0.21 2.96
    pair_coeff 211 211  0.17 3.0
    pair_coeff 212 212  0.0 0.0
    pair_coeff 213 213  0.105 3.75
    pair_coeff 214 214  0.21 2.96
    pair_coeff 215 215  0.066 3.5
    pair_coeff 216 216  0.066 3.5
    pair_coeff 217 217  0.066 3.5
    pair_coeff 218 218  0.066 3.5
    pair_coeff 219 219  0.105 3.75
    pair_coeff 220 220  0.21 2.96
    pair_coeff 221 221  0.015 2.42
    pair_coeff 222 222  0.105 3.75
    pair_coeff 223 223  0.21 2.96
    pair_coeff 224 224  0.015 2.42
    pair_coeff 225 225  0.066 3.5
    pair_coeff 226 226  0.066 3.5
    pair_coeff 227 227  0.066 3.5
    pair_coeff 228 228  0.066 3.5
    pair_coeff 229 229  0.17 3.25
    pair_coeff 230 230  0.17 3.25
    pair_coeff 231 231  0.17 3.25
    pair_coeff 232 232  0.0 0.0
    pair_coeff 233 233  0.0 0.0
    pair_coeff 234 234  0.066 3.5
    pair_coeff 235 235  0.066 3.5
    pair_coeff 236 236  0.066 3.5
    pair_coeff 237 237  0.066 3.5
    pair_coeff 238 238  0.066 3.5
    pair_coeff 239 239  0.066 3.5
    pair_coeff 240 240  0.066 3.5
    pair_coeff 241 241  0.066 3.5
    pair_coeff 242 242  0.066 3.5
    pair_coeff 243 243  0.17 3.25
    pair_coeff 244 244  0.0 0.0
    pair_coeff 245 245  0.05 3.55
    pair_coeff 246 246  0.17 3.25
    pair_coeff 247 247  0.0 0.0
    pair_coeff 248 248  0.066 3.5
    pair_coeff 249 249  0.066 3.5
    pair_coeff 250 250  0.066 3.5
    pair_coeff 251 251  0.066 3.5
    pair_coeff 252 252  0.17 3.25
    pair_coeff 253 253  0.0 0.0
    pair_coeff 254 254  0.17 3.25
    pair_coeff 255 255  0.08 3.5
    pair_coeff 256 256  0.17 3.25
    pair_coeff 257 257  0.0 0.0
    pair_coeff 258 258  0.08 3.5
    pair_coeff 259 259  0.05 2.5
    pair_coeff 260 260  0.08 3.5
    pair_coeff 261 261  0.05 2.5
    pair_coeff 262 262  0.17 3.25
    pair_coeff 263 263  0.105 3.75
    pair_coeff 264 264  0.17 3.25
    pair_coeff 265 265  0.105 3.75
    pair_coeff 266 266  0.08 3.5
    pair_coeff 267 267  0.08 3.5
    pair_coeff 268 268  0.0 0.0
    pair_coeff 269 269  0.21 2.96
    pair_coeff 270 270  0.0 0.0
    pair_coeff 271 271  0.21 2.96
    pair_coeff 272 272  0.05 2.5
    pair_coeff 273 273  0.05 2.5
    pair_coeff 274 274  0.08 3.5
    pair_coeff 275 275  0.05 2.5
    pair_coeff 276 276  0.17 3.25
    pair_coeff 277 277  0.105 3.75
    pair_coeff 278 278  0.17 3.25
    pair_coeff 279 279  0.08 3.5
    pair_coeff 280 280  0.08 3.5
    pair_coeff 281 281  0.08 3.5
    pair_coeff 282 282  0.0 0.0
    pair_coeff 283 283  0.21 2.96
    pair_coeff 284 284  0.17 3.25
    pair_coeff 285 285  0.0 0.0
    pair_coeff 286 286  0.0 0.0
    pair_coeff 287 287  0.05 2.5
    pair_coeff 288 288  0.05 2.5
    pair_coeff 289 289  0.17 3.25
    pair_coeff 290 290  0.08 3.5
    pair_coeff 291 291  0.17 3.25
    pair_coeff 292 292  0.08 3.5
    pair_coeff 293 293  0.08 3.5
    pair_coeff 294 294  0.08 3.5
    pair_coeff 295 295  0.17 3.25
    pair_coeff 296 296  0.08 3.5
    pair_coeff 297 297  0.17 3.25
    pair_coeff 298 298  0.05 2.5
    pair_coeff 299 299  0.17 3.25
    pair_coeff 300 300  0.0 0.0
    pair_coeff 301 301  0.0 0.0
    pair_coeff 302 302  0.05 2.5
    pair_coeff 303 303  0.0 0.0
    pair_coeff 304 304  0.17 3.25
    pair_coeff 305 305  0.08 3.5
    pair_coeff 306 306  0.17 3.25
    pair_coeff 307 307  0.08 3.5
    pair_coeff 308 308  0.08 3.5
    pair_coeff 309 309  0.105 3.75
    pair_coeff 310 310  0.0 0.0
    pair_coeff 311 311  0.17 3.25
    pair_coeff 312 312  0.0 0.0
    pair_coeff 313 313  0.21 2.96
    pair_coeff 314 314  0.08 3.5
    pair_coeff 315 315  0.05 2.5
    pair_coeff 316 316  0.08 3.5
    pair_coeff 317 317  0.05 2.5
    pair_coeff 318 318  0.08 3.5
    pair_coeff 319 319  0.05 2.5
    pair_coeff 320 320  0.17 3.25
    pair_coeff 321 321  0.105 3.75
    pair_coeff 322 322  0.17 3.25
    pair_coeff 323 323  0.08 3.5
    pair_coeff 324 324  0.08 3.5
    pair_coeff 325 325  0.08 3.5
    pair_coeff 326 326  0.0 0.0
    pair_coeff 327 327  0.21 2.96
    pair_coeff 328 328  0.0 0.0
    pair_coeff 329 329  0.17 3.25
    pair_coeff 330 330  0.0 0.0
    pair_coeff 331 331  0.0 0.0
    pair_coeff 332 332  0.05 2.5
    pair_coeff 333 333  0.05 2.5
    pair_coeff 334 334  0.08 3.5
    pair_coeff 335 335  0.05 2.5
    pair_coeff 336 336  0.2 3.74
    pair_coeff 337 337  0.21 2.96
    pair_coeff 338 338  0.17 3.0
    pair_coeff 339 339  0.066 3.55
    pair_coeff 340 340  0.08 3.5
    pair_coeff 341 341  0.3 3.4
    pair_coeff 342 342  0.076 3.55
    pair_coeff 343 343  0.71 3.05
    pair_coeff 344 344  0.71 4.02
    pair_coeff 345 345  0.71 4.28
    pair_coeff 346 346  0.71 4.81
    pair_coeff 347 347  0.0005 5.34
    pair_coeff 348 348  0.0005 2.87
    pair_coeff 349 349  0.0005 4.07
    pair_coeff 350 350  0.0005 5.17
    pair_coeff 351 351  0.0005 5.6
    pair_coeff 352 352  0.0005 6.2
    pair_coeff 353 353  0.875044 1.644471
    pair_coeff 354 354  0.449657 2.412031
    pair_coeff 355 355  0.118226 3.102688
    pair_coeff 356 356  0.047096 3.81661
    pair_coeff 357 357  0.3 4.2
    pair_coeff 358 358  0.05 2.5
    pair_coeff 359 359  0.5 4.25
    pair_coeff 360 360  0.3 4.2
    pair_coeff 361 361  0.05 2.5
    pair_coeff 362 362  0.25 3.15
    pair_coeff 363 363  0.3 4.2
    pair_coeff 364 364  0.05 2.5
    pair_coeff 365 365  0.15 3.65
    pair_coeff 366 366  0.25 3.4
    pair_coeff 367 367  0.3 4.2
    pair_coeff 368 368  0.05 2.5
    pair_coeff 369 369  0.25 3.4
    pair_coeff 370 370  0.05 2.5
    pair_coeff 371 371  0.3 4.2
    pair_coeff 372 372  0.05 2.5
    pair_coeff 373 373  0.3 4.2
    pair_coeff 374 374  0.05 2.5
    pair_coeff 375 375  0.0 0.0
    pair_coeff 376 376  0.25 3.2
    pair_coeff 377 377  0.0 0.0
    pair_coeff 378 378  0.4 2.81524
    pair_coeff 379 379  0.2 3.11815
    pair_coeff 380 380  0.14 2.9
    pair_coeff 381 381  0.2 3.74
    pair_coeff 382 382  0.2 3.15
    pair_coeff 383 383  0.14 2.9
    pair_coeff 384 384  0.066 3.5
    pair_coeff 385 385  0.03 2.5
    pair_coeff 386 386  0.2 3.74
    pair_coeff 387 387  0.2 3.15
    pair_coeff 388 388  0.14 2.9
    pair_coeff 389 389  0.066 3.5
    pair_coeff 390 390  0.03 2.5
    pair_coeff 391 391  0.2 3.74
    pair_coeff 392 392  0.2 3.15
    pair_coeff 393 393  0.14 2.9
    pair_coeff 394 394  0.066 3.5
    pair_coeff 395 395  0.03 2.5
    pair_coeff 396 396  0.066 3.5
    pair_coeff 397 397  0.03 2.5
    pair_coeff 398 398  0.07 3.55
    pair_coeff 399 399  0.066 3.5
    pair_coeff 400 400  0.03 2.5
    pair_coeff 401 401  0.07 3.55
    pair_coeff 402 402  0.066 3.5
    pair_coeff 403 403  0.03 2.5
    pair_coeff 404 404  0.07 3.55
    pair_coeff 405 405  0.066 3.5
    pair_coeff 406 406  0.105 3.75
    pair_coeff 407 407  0.21 2.96
    pair_coeff 408 408  0.17 3.0
    pair_coeff 409 409  0.066 3.5
    pair_coeff 410 410  0.015 2.42
    pair_coeff 411 411  0.105 3.75
    pair_coeff 412 412  0.105 3.75
    pair_coeff 413 413  0.07 3.55
    pair_coeff 414 414  0.17 3.0
    pair_coeff 415 415  0.25 3.55
    pair_coeff 416 416  0.17 2.96
    pair_coeff 417 417  0.066 3.5
    pair_coeff 418 418  0.03 2.5
    pair_coeff 419 419  0.17 3.25
    pair_coeff 420 420  0.0 0.0
    pair_coeff 421 421  0.17 3.25
    pair_coeff 422 422  0.0 0.0
    pair_coeff 423 423  0.066 3.5
    pair_coeff 424 424  0.03 2.5
    pair_coeff 425 425  0.066 3.5
    pair_coeff 426 426  0.03 2.5
    pair_coeff 427 427  0.066 3.5
    pair_coeff 428 428  0.03 2.5
    pair_coeff 429 429  0.07 3.55
    pair_coeff 430 430  0.07 3.55
    pair_coeff 431 431  0.066 3.5
    pair_coeff 432 432  0.066 3.5
    pair_coeff 433 433  0.066 3.5
    pair_coeff 434 434  0.25 3.55
    pair_coeff 435 435  0.17 2.96
    pair_coeff 436 436  0.395 3.56
    pair_coeff 437 437  0.395 3.56
    pair_coeff 438 438  0.28 2.93
    pair_coeff 439 439  0.066 3.5
    pair_coeff 440 440  0.066 3.5
    pair_coeff 441 441  0.07 3.55
    pair_coeff 442 442  0.07 3.55
    pair_coeff 443 443  0.07 3.55
    pair_coeff 444 444  0.17 3.25
    pair_coeff 445 445  0.0 0.0
    pair_coeff 446 446  0.066 3.5
    pair_coeff 447 447  0.07 3.55
    pair_coeff 448 448  0.07 3.55
    pair_coeff 449 449  0.07 3.55
    pair_coeff 450 450  0.07 3.55
    pair_coeff 451 451  0.07 3.55
    pair_coeff 452 452  0.17 3.25
    pair_coeff 453 453  0.17 3.25
    pair_coeff 454 454  0.0 0.0
    pair_coeff 455 455  0.07 3.55
    pair_coeff 456 456  0.066 3.5
    pair_coeff 457 457  0.066 3.5
    pair_coeff 458 458  0.076 3.55
    pair_coeff 459 459  0.076 3.55
    pair_coeff 460 460  0.07 3.55
    pair_coeff 461 461  0.17 3.25
    pair_coeff 462 462  0.07 3.55
    pair_coeff 463 463  0.07 3.55
    pair_coeff 464 464  0.07 3.55
    pair_coeff 465 465  0.03 2.42
    pair_coeff 466 466  0.03 2.42
    pair_coeff 467 467  0.03 2.42
    pair_coeff 468 468  0.17 3.25
    pair_coeff 469 469  0.07 3.55
    pair_coeff 470 470  0.03 2.42
    pair_coeff 471 471  0.17 3.25
    pair_coeff 472 472  0.07 3.55
    pair_coeff 473 473  0.07 3.55
    pair_coeff 474 474  0.07 3.55
    pair_coeff 475 475  0.03 2.42
    pair_coeff 476 476  0.03 2.42
    pair_coeff 477 477  0.03 2.42
    pair_coeff 478 478  0.17 3.25
    pair_coeff 479 479  0.07 3.55
    pair_coeff 480 480  0.07 3.55
    pair_coeff 481 481  0.03 2.42
    pair_coeff 482 482  0.03 2.42
    pair_coeff 483 483  0.17 3.25
    pair_coeff 484 484  0.07 3.55
    pair_coeff 485 485  0.07 3.55
    pair_coeff 486 486  0.0 0.0
    pair_coeff 487 487  0.03 2.42
    pair_coeff 488 488  0.03 2.42
    pair_coeff 489 489  0.17 3.25
    pair_coeff 490 490  0.17 3.25
    pair_coeff 491 491  0.07 3.55
    pair_coeff 492 492  0.07 3.55
    pair_coeff 493 493  0.07 3.55
    pair_coeff 494 494  0.0 0.0
    pair_coeff 495 495  0.03 2.42
    pair_coeff 496 496  0.03 2.42
    pair_coeff 497 497  0.03 2.42
    pair_coeff 498 498  0.17 3.25
    pair_coeff 499 499  0.07 3.55
    pair_coeff 500 500  0.17 3.25
    pair_coeff 501 501  0.07 3.55
    pair_coeff 502 502  0.07 3.55
    pair_coeff 503 503  0.0 0.0
    pair_coeff 504 504  0.03 2.42
    pair_coeff 505 505  0.03 2.42
    pair_coeff 506 506  0.03 2.42
    pair_coeff 507 507  0.14 2.9
    pair_coeff 508 508  0.07 3.55
    pair_coeff 509 509  0.076 3.55
    pair_coeff 510 510  0.03 2.42
    pair_coeff 511 511  0.03 2.42
    pair_coeff 512 512  0.14 2.9
    pair_coeff 513 513  0.07 3.55
    pair_coeff 514 514  0.17 3.25
    pair_coeff 515 515  0.07 3.55
    pair_coeff 516 516  0.07 3.55
    pair_coeff 517 517  0.03 2.42
    pair_coeff 518 518  0.03 2.42
    pair_coeff 519 519  0.03 2.42
    pair_coeff 520 520  0.14 2.9
    pair_coeff 521 521  0.17 3.25
    pair_coeff 522 522  0.07 3.55
    pair_coeff 523 523  0.07 3.55
    pair_coeff 524 524  0.07 3.55
    pair_coeff 525 525  0.03 2.42
    pair_coeff 526 526  0.03 2.42
    pair_coeff 527 527  0.03 2.42
    pair_coeff 528 528  0.17 3.25
    pair_coeff 529 529  0.07 3.55
    pair_coeff 530 530  0.07 3.55
    pair_coeff 531 531  0.07 3.55
    pair_coeff 532 532  0.07 3.55
    pair_coeff 533 533  0.07 3.55
    pair_coeff 534 534  0.07 3.55
    pair_coeff 535 535  0.07 3.55
    pair_coeff 536 536  0.07 3.55
    pair_coeff 537 537  0.0 0.0
    pair_coeff 538 538  0.03 2.42
    pair_coeff 539 539  0.03 2.42
    pair_coeff 540 540  0.03 2.42
    pair_coeff 541 541  0.03 2.42
    pair_coeff 542 542  0.03 2.42
    pair_coeff 543 543  0.03 2.42
    pair_coeff 544 544  0.17 3.25
    pair_coeff 545 545  0.07 3.55
    pair_coeff 546 546  0.07 3.55
    pair_coeff 547 547  0.07 3.55
    pair_coeff 548 548  0.07 3.55
    pair_coeff 549 549  0.07 3.55
    pair_coeff 550 550  0.07 3.55
    pair_coeff 551 551  0.07 3.55
    pair_coeff 552 552  0.07 3.55
    pair_coeff 553 553  0.07 3.55
    pair_coeff 554 554  0.03 2.42
    pair_coeff 555 555  0.03 2.42
    pair_coeff 556 556  0.03 2.42
    pair_coeff 557 557  0.03 2.42
    pair_coeff 558 558  0.03 2.42
    pair_coeff 559 559  0.03 2.42
    pair_coeff 560 560  0.03 2.42
    pair_coeff 561 561  0.17 3.25
    pair_coeff 562 562  0.07 3.55
    pair_coeff 563 563  0.17 3.25
    pair_coeff 564 564  0.07 3.55
    pair_coeff 565 565  0.07 3.55
    pair_coeff 566 566  0.07 3.55
    pair_coeff 567 567  0.17 3.25
    pair_coeff 568 568  0.07 3.55
    pair_coeff 569 569  0.17 3.25
    pair_coeff 570 570  0.03 2.42
    pair_coeff 571 571  0.03 2.42
    pair_coeff 572 572  0.03 2.42
    pair_coeff 573 573  0.0 0.0
    pair_coeff 574 574  0.25 3.55
    pair_coeff 575 575  0.07 3.55
    pair_coeff 576 576  0.17 3.25
    pair_coeff 577 577  0.07 3.55
    pair_coeff 578 578  0.07 3.55
    pair_coeff 579 579  0.03 2.42
    pair_coeff 580 580  0.03 2.42
    pair_coeff 581 581  0.03 2.42
    pair_coeff 582 582  0.17 3.25
    pair_coeff 583 583  0.07 3.55
    pair_coeff 584 584  0.03 2.42
    pair_coeff 585 585  0.07 3.55
    pair_coeff 586 586  0.066 3.5
    pair_coeff 587 587  0.17 3.25
    pair_coeff 588 588  0.07 3.55
    pair_coeff 589 589  0.07 3.55
    pair_coeff 590 590  0.07 3.55
    pair_coeff 591 591  0.07 3.55
    pair_coeff 592 592  0.07 3.55
    pair_coeff 593 593  0.07 3.55
    pair_coeff 594 594  0.03 2.42
    pair_coeff 595 595  0.03 2.42
    pair_coeff 596 596  0.03 2.42
    pair_coeff 597 597  0.03 2.42
    pair_coeff 598 598  0.17 3.25
    pair_coeff 599 599  0.07 3.55
    pair_coeff 600 600  0.17 3.25
    pair_coeff 601 601  0.07 3.55
    pair_coeff 602 602  0.07 3.55
    pair_coeff 603 603  0.066 3.5
    pair_coeff 604 604  0.03 2.42
    pair_coeff 605 605  0.03 2.42
    pair_coeff 606 606  0.03 2.42
    pair_coeff 607 607  0.03 2.5
    pair_coeff 608 608  0.066 3.5
    pair_coeff 609 609  0.066 3.5
    pair_coeff 610 610  0.066 3.5
    pair_coeff 611 611  0.066 3.5
    pair_coeff 612 612  0.066 3.5
    pair_coeff 613 613  0.066 3.5
    pair_coeff 614 614  0.066 3.5
    pair_coeff 615 615  0.066 3.5
    pair_coeff 616 616  0.066 3.5
    pair_coeff 617 617  0.066 3.5
    pair_coeff 618 618  0.066 3.5
    pair_coeff 619 619  0.066 3.5
    pair_coeff 620 620  0.066 3.5
    pair_coeff 621 621  0.066 3.5
    pair_coeff 622 622  0.066 3.5
    pair_coeff 623 623  0.25 3.55
    pair_coeff 624 624  0.0 0.0
    pair_coeff 625 625  0.07 3.55
    pair_coeff 626 626  0.105 3.75
    pair_coeff 627 627  0.17 3.25
    pair_coeff 628 628  0.066 3.5
    pair_coeff 629 629  0.066 3.5
    pair_coeff 630 630  0.066 3.5
    pair_coeff 631 631  0.07 3.55
    pair_coeff 632 632  0.07 3.55
    pair_coeff 633 633  0.07 3.55
    pair_coeff 634 634  0.07 3.55
    pair_coeff 635 635  0.07 3.55
    pair_coeff 636 636  0.07 3.55
    pair_coeff 637 637  0.25 3.55
    pair_coeff 638 638  0.054 3.473
    pair_coeff 639 639  0.05 3.3
    pair_coeff 640 640  0.05 3.3
    pair_coeff 641 641  0.076 3.55
    pair_coeff 642 642  0.066 3.5
    pair_coeff 643 643  0.03 2.5
    pair_coeff 644 644  0.06 3.75
    pair_coeff 645 645  0.054 3.473
    pair_coeff 646 646  0.05 3.3
    pair_coeff 647 647  0.05 3.3
    pair_coeff 648 648  0.04 2.95
    pair_coeff 649 649  0.076 3.55
    pair_coeff 650 650  0.3 3.4
    pair_coeff 651 651  0.03 2.42
    pair_coeff 652 652  0.066 3.5
    pair_coeff 653 653  0.066 3.5
    pair_coeff 654 654  0.066 3.5
    pair_coeff 655 655  0.07 3.55
    pair_coeff 656 656  0.03 2.42
    pair_coeff 657 657  0.07 3.55
    pair_coeff 658 658  0.03 2.42
    pair_coeff 659 659  0.07 3.55
    pair_coeff 660 660  0.061 2.85
    pair_coeff 661 661  0.07 3.55
    pair_coeff 662 662  0.061 2.85
    pair_coeff 663 663  0.47 3.47
    pair_coeff 664 664  0.118 3.905
    pair_coeff 665 665  0.07 3.55
    pair_coeff 666 666  0.062 3.25
    pair_coeff 667 667  0.061 2.94
    pair_coeff 668 668  0.07 3.55
    pair_coeff 669 669  0.061 2.85
    pair_coeff 670 670  0.07 3.55
    pair_coeff 671 671  0.47 3.47
    pair_coeff 672 672  0.07 3.55
    pair_coeff 673 673  0.6 3.75
    pair_coeff 674 674  0.066 3.5
    pair_coeff 675 675  0.25 3.55
    pair_coeff 676 676  0.07 3.55
    pair_coeff 677 677  0.07 3.55
    pair_coeff 678 678  0.07 3.55
    pair_coeff 679 679  0.07 3.55
    pair_coeff 680 680  0.07 3.55
    pair_coeff 681 681  0.03 2.42
    pair_coeff 682 682  0.03 2.42
    pair_coeff 683 683  0.05 3.55
    pair_coeff 684 684  0.17 3.25
    pair_coeff 685 685  0.0 0.0
    pair_coeff 686 686  0.0 0.0
    pair_coeff 687 687  0.03 2.42
    pair_coeff 688 688  0.066 3.5
    pair_coeff 689 689  0.066 3.5
    pair_coeff 690 690  0.17 3.25
    pair_coeff 691 691  0.17 3.25
    pair_coeff 692 692  0.17 3.25
    pair_coeff 693 693  0.05 3.55
    pair_coeff 694 694  0.17 3.2
    pair_coeff 695 695  0.066 3.3
    pair_coeff 696 696  0.066 3.3
    pair_coeff 697 697  0.066 3.3
    pair_coeff 698 698  0.066 3.3
    pair_coeff 699 699  0.066 3.3
    pair_coeff 700 700  0.015 2.5
    pair_coeff 701 701  0.12 3.25
    pair_coeff 702 702  0.17 2.96
    pair_coeff 703 703  0.066 3.5
    pair_coeff 704 704  0.015 2.5
    pair_coeff 705 705  0.066 3.5
    pair_coeff 706 706  0.066 3.5
    pair_coeff 707 707  0.066 3.5
    pair_coeff 708 708  0.12 3.25
    pair_coeff 709 709  0.07 3.55
    pair_coeff 710 710  0.066 3.3
    pair_coeff 711 711  0.17 3.25
    pair_coeff 712 712  0.21 2.96
    pair_coeff 713 713  0.105 3.75
    pair_coeff 714 714  0.17 3.0
    pair_coeff 715 715  0.066 3.5
    pair_coeff 716 716  0.066 3.5
    pair_coeff 717 717  0.066 3.5
    pair_coeff 718 718  0.015 2.42
    pair_coeff 719 719  0.015 2.42
    pair_coeff 720 720  0.015 2.42
    pair_coeff 721 721  0.14 2.9
    pair_coeff 722 722  0.2 3.74
    pair_coeff 723 723  0.066 3.5
    pair_coeff 724 724  0.066 3.5
    pair_coeff 725 725  0.03 2.5
    pair_coeff 726 726  0.2 3.74
    pair_coeff 727 727  0.061 3.1181
    pair_coeff 728 728  0.17 3.15
    pair_coeff 729 729  0.21 2.86
    pair_coeff 730 730  0.17 3.3
    pair_coeff 731 731  0.17 3.3
    pair_coeff 732 732  0.17 3.3
    pair_coeff 733 733  0.066 3.5
    pair_coeff 734 734  0.066 3.5
    pair_coeff 735 735  0.066 3.5
    pair_coeff 736 736  0.066 3.5
    pair_coeff 737 737  0.066 3.5
    pair_coeff 738 738  0.066 3.5
    pair_coeff 739 739  0.0 0.0
    pair_coeff 740 740  0.0 0.0
    pair_coeff 741 741  0.015 2.5
    pair_coeff 742 742  0.066 3.5
    pair_coeff 743 743  0.066 3.5
    pair_coeff 744 744  0.066 3.5
    pair_coeff 745 745  0.066 3.5
    pair_coeff 746 746  0.07 3.55
    pair_coeff 747 747  0.07 3.55
    pair_coeff 748 748  0.07 3.55
    pair_coeff 749 749  0.066 3.5
    pair_coeff 750 750  0.066 3.5
    pair_coeff 751 751  0.066 3.5
    pair_coeff 752 752  0.066 3.5
    pair_coeff 753 753  0.066 3.5
    pair_coeff 754 754  0.066 3.5
    pair_coeff 755 755  0.086 3.3
    pair_coeff 756 756  0.015 2.42
    pair_coeff 757 757  0.21 3.3
    pair_coeff 758 758  0.135 3.3
    pair_coeff 759 759  0.1 3.3
    pair_coeff 760 760  0.015 2.5
    pair_coeff 761 761  0.066 3.5
    pair_coeff 762 762  0.066 3.5
    pair_coeff 763 763  0.066 3.5
    pair_coeff 764 764  0.17 3.12
    pair_coeff 765 765  0.0 0.0
    pair_coeff 766 766  0.17 3.25
    pair_coeff 767 767  0.17 3.25
    pair_coeff 768 768  0.17 3.25
    pair_coeff 769 769  0.21 3.3
    pair_coeff 770 770  0.17 3.25
    pair_coeff 771 771  0.0 0.0
    pair_coeff 772 772  0.066 3.5
    pair_coeff 773 773  0.066 3.5
    pair_coeff 774 774  0.066 3.5
    pair_coeff 775 775  0.066 3.5
    pair_coeff 776 776  0.07 3.55
    pair_coeff 777 777  0.076 3.55
    pair_coeff 778 778  0.07 3.55
    pair_coeff 779 779  0.07 3.55
    pair_coeff 780 780  0.03 2.5
    pair_coeff 781 781  0.066 3.5
    pair_coeff 782 782  0.105 3.75
    pair_coeff 783 783  0.17 3.25
    pair_coeff 784 784  0.21 2.96
    pair_coeff 785 785  0.0 0.0
    pair_coeff 786 786  0.061 2.94
    pair_coeff 787 787  0.066 3.5
    pair_coeff 788 788  0.03 2.5
    pair_coeff 789 789  0.066 3.5
    pair_coeff 790 790  0.066 3.5
    pair_coeff 791 791  0.066 3.5
    pair_coeff 792 792  0.066 3.5
    pair_coeff 793 793  0.066 3.5
    pair_coeff 794 794  0.097 3.5
    pair_coeff 795 795  0.053 2.95
    pair_coeff 796 796  0.062 3.25
    pair_coeff 797 797  0.03 2.5
    pair_coeff 798 798  0.066 3.5
    pair_coeff 799 799  0.066 3.5
    pair_coeff 800 800  0.3 3.4
    pair_coeff 801 801  0.066 3.5
    pair_coeff 802 802  0.03 2.5
    pair_coeff 803 803  0.066 3.5
    pair_coeff 804 804  0.066 3.5
    pair_coeff 805 805  0.47 3.47
    pair_coeff 806 806  0.066 3.5
    pair_coeff 807 807  0.03 2.5
    pair_coeff 808 808  0.066 3.5
    pair_coeff 809 809  0.066 3.5
    pair_coeff 810 810  0.061 2.94
    pair_coeff 811 811  0.3 3.4
    pair_coeff 812 812  0.47 3.47
    pair_coeff 813 813  0.07 3.55
    pair_coeff 814 814  0.14 2.9
    pair_coeff 815 815  0.066 3.5
    pair_coeff 816 816  0.06 2.9
    pair_coeff 817 817  0.17 3.25
    pair_coeff 818 818  0.07 3.55
    pair_coeff 819 819  0.066 3.5
    pair_coeff 820 820  0.105 3.75
    pair_coeff 821 821  0.105 3.75
    pair_coeff 822 822  0.21 2.96
    pair_coeff 823 823  0.17 3.25
    pair_coeff 824 824  0.0 0.0
    pair_coeff 825 825  0.17 3.12
    pair_coeff 826 826  0.0 0.0
    pair_coeff 827 827  0.066 3.5
    pair_coeff 828 828  0.066 3.5
    pair_coeff 829 829  0.07 3.55
    pair_coeff 830 830  0.07 3.55
    pair_coeff 831 831  0.07 3.55
    pair_coeff 832 832  0.07 3.55
    pair_coeff 833 833  0.07 3.55
    pair_coeff 834 834  0.0125 1.96
    pair_coeff 835 835  0.066 3.5
    pair_coeff 836 836  0.066 3.5
    pair_coeff 837 837  0.066 3.5
    pair_coeff 838 838  0.6 3.75
    pair_coeff 839 839  0.03 2.5
    pair_coeff 840 840  0.17 3.25
    pair_coeff 841 841  0.07 3.55
    pair_coeff 842 842  0.07 3.55
    pair_coeff 843 843  0.17 3.25
    pair_coeff 844 844  0.07 3.55
    pair_coeff 845 845  0.105 3.75
    pair_coeff 846 846  0.21 2.96
    pair_coeff 847 847  0.17 3.25
    pair_coeff 848 848  0.066 3.5
    pair_coeff 849 849  0.066 3.5
    pair_coeff 850 850  0.066 3.5
    pair_coeff 851 851  0.066 3.5
    pair_coeff 852 852  0.015 2.42
    pair_coeff 853 853  0.105 3.75
    pair_coeff 854 854  0.21 2.96
    pair_coeff 855 855  0.015 2.42
    pair_coeff 856 856  0.066 3.5
    pair_coeff 857 857  0.066 3.5
    pair_coeff 858 858  0.066 3.5
    pair_coeff 859 859  0.066 3.5
    pair_coeff 860 860  0.066 3.5
    pair_coeff 861 861  0.066 3.5
    pair_coeff 862 862  0.066 3.5
    pair_coeff 863 863  0.066 3.5
    pair_coeff 864 864  0.066 3.5
    pair_coeff 865 865  0.066 3.5
    pair_coeff 866 866  0.1 4.0
    pair_coeff 867 867  0.1 4.0
    pair_coeff 868 868  0.1 4.0
    pair_coeff 869 869  0.1 4.0
    pair_coeff 870 870  0.03 2.5
    pair_coeff 871 871  0.066 3.5
    pair_coeff 872 872  0.066 3.5
    pair_coeff 873 873  0.066 3.5
    pair_coeff 874 874  0.066 3.5
    pair_coeff 875 875  0.72 3.08
    pair_coeff 876 876  0.11779 4.18
    pair_coeff 877 877  0.09 4.51
    pair_coeff 878 878  0.07 5.15
    pair_coeff 879 879  0.018279 2.7
    pair_coeff 880 880  0.002772 3.35
    pair_coeff 881 881  0.000328 4.06
    pair_coeff 882 882  0.000171 4.32
    pair_coeff 883 883  8.1e-05 4.82
    pair_coeff 884 884  0.875044 2.91
    pair_coeff 885 885  0.449657 3.47
    pair_coeff 886 886  0.118226 3.82
    pair_coeff 887 887  0.047096 4.18
    pair_coeff 888 888  0.066 3.5
    pair_coeff 889 889  0.066 3.5
    pair_coeff 890 890  0.066 3.5
    pair_coeff 891 891  0.066 3.5
    pair_coeff 892 892  0.03 2.5
    pair_coeff 893 893  0.17 3.25
    pair_coeff 894 894  0.07 3.55
    pair_coeff 895 895  0.17 3.25
    pair_coeff 896 896  0.07 3.55
    pair_coeff 897 897  0.076 3.55
    pair_coeff 898 898  0.076 3.55
    pair_coeff 899 899  0.03 2.42
    pair_coeff 900 900  0.086 3.3
    pair_coeff 901 901  0.086 3.3
    pair_coeff 902 902  0.086 3.3
    pair_coeff 903 903  0.086 3.3
    pair_coeff 904 904  0.086 3.3
    pair_coeff 905 905  0.21 2.96
    pair_coeff 906 906  0.066 3.5
    bond_coeff 1  367.0 1.38
    bond_coeff 2  420.0 1.357
    bond_coeff 3  367.0 1.36
    bond_coeff 4  450.0 1.279
    bond_coeff 5  300.0 0.3
    bond_coeff 6  420.0 1.34
    bond_coeff 7  420.0 1.354
    bond_coeff 8  420.0 1.354
    bond_coeff 9  420.0 1.354
    bond_coeff 10  420.0 1.354
    bond_coeff 11  420.0 1.354
    bond_coeff 12  420.0 1.354
    bond_coeff 13  461.0 1.57
    bond_coeff 14  260.0 1.526
    bond_coeff 15  317.0 1.522
    bond_coeff 16  386.0 1.425
    bond_coeff 17  260.0 1.526
    bond_coeff 18  260.0 1.526
    bond_coeff 19  317.0 1.5
    bond_coeff 20  317.0 1.51
    bond_coeff 21  260.0 1.526
    bond_coeff 22  317.0 1.5
    bond_coeff 23  222.0 1.81
    bond_coeff 24  222.0 1.81
    bond_coeff 25  320.0 1.425
    bond_coeff 26  337.0 1.449
    bond_coeff 27  382.0 1.448
    bond_coeff 28  317.0 1.51
    bond_coeff 29  260.0 1.526
    bond_coeff 30  367.0 1.471
    bond_coeff 31  337.0 1.463
    bond_coeff 32  317.0 1.495
    bond_coeff 33  350.0 1.51
    bond_coeff 34  570.0 1.229
    bond_coeff 35  450.0 1.364
    bond_coeff 36  317.0 1.522
    bond_coeff 37  317.0 1.522
    bond_coeff 38  469.0 1.4
    bond_coeff 39  317.0 1.522
    bond_coeff 40  400.0 1.444
    bond_coeff 41  214.0 1.327
    bond_coeff 42  300.0 1.79
    bond_coeff 43  490.0 1.335
    bond_coeff 44  317.0 1.522
    bond_coeff 45  340.0 1.09
    bond_coeff 46  410.0 1.444
    bond_coeff 47  400.0 1.49
    bond_coeff 48  385.0 1.46
    bond_coeff 49  656.0 1.25
    bond_coeff 50  457.0 1.358
    bond_coeff 51  418.0 1.388
    bond_coeff 52  447.0 1.419
    bond_coeff 53  300.0 1.98
    bond_coeff 54  400.0 1.49
    bond_coeff 55  385.0 1.46
    bond_coeff 56  424.0 1.383
    bond_coeff 57  490.0 1.335
    bond_coeff 58  553.0 0.3
    bond_coeff 59  525.0 1.48
    bond_coeff 60  570.0 1.229
    bond_coeff 61  700.0 1.171
    bond_coeff 62  386.0 1.425
    bond_coeff 63  553.0 0.945
    bond_coeff 64  386.0 1.425
    bond_coeff 65  320.0 1.41
    bond_coeff 66  250.0 1.47
    bond_coeff 67  400.0 1.38
    bond_coeff 68  340.0 0.3
    bond_coeff 69  320.0 1.45
    bond_coeff 70  450.0 1.37
    bond_coeff 71  450.0 1.364
    bond_coeff 72  320.0 1.38
    bond_coeff 73  230.0 1.61
    bond_coeff 74  450.0 1.67
    bond_coeff 75  94.0 1.8
    bond_coeff 76  374.0 1.64
    bond_coeff 77  260.0 1.526
    bond_coeff 78  260.0 1.526
    bond_coeff 79  317.0 1.5
    bond_coeff 80  260.0 1.526
    bond_coeff 81  317.0 1.5
    bond_coeff 82  222.0 1.81
    bond_coeff 83  222.0 1.81
    bond_coeff 84  320.0 1.425
    bond_coeff 85  337.0 1.449
    bond_coeff 86  382.0 1.448
    bond_coeff 87  317.0 1.51
    bond_coeff 88  260.0 1.526
    bond_coeff 89  367.0 1.471
    bond_coeff 90  337.0 1.463
    bond_coeff 91  222.0 1.81
    bond_coeff 92  337.0 1.475
    bond_coeff 93  553.0 0.945
    bond_coeff 94  340.0 0.1
    bond_coeff 95  530.0 1.34
    bond_coeff 96  530.0 1.34
    bond_coeff 97  530.0 1.34
    bond_coeff 98  260.0 1.526
    bond_coeff 99  317.0 1.5
    bond_coeff 100  317.0 1.5
    bond_coeff 101  320.0 1.425
    bond_coeff 102  337.0 1.449
    bond_coeff 103  382.0 1.448
    bond_coeff 104  337.0 1.475
    bond_coeff 105  530.0 1.34
    bond_coeff 106  317.0 1.5
    bond_coeff 107  530.0 1.34
    bond_coeff 108  222.0 1.76
    bond_coeff 109  469.0 1.4
    bond_coeff 110  469.0 1.4
    bond_coeff 111  469.0 1.4
    bond_coeff 112  469.0 1.4
    bond_coeff 113  268.0 1.529
    bond_coeff 114  317.0 1.5
    bond_coeff 115  222.0 1.81
    bond_coeff 116  222.0 1.81
    bond_coeff 117  390.0 1.43
    bond_coeff 118  390.0 1.47
    bond_coeff 119  320.0 1.41
    bond_coeff 120  245.0 1.781
    bond_coeff 121  340.0 1.79
    bond_coeff 122  337.0 1.449
    bond_coeff 123  340.0 0.3
    bond_coeff 124  382.0 1.448
    bond_coeff 125  340.0 1.09
    bond_coeff 126  317.0 1.51
    bond_coeff 127  317.0 1.51
    bond_coeff 128  317.0 1.51
    bond_coeff 129  268.0 1.529
    bond_coeff 130  367.0 1.471
    bond_coeff 131  337.0 1.463
    bond_coeff 132  337.0 1.449
    bond_coeff 133  337.0 1.475
    bond_coeff 134  317.0 1.51
    bond_coeff 135  212.0 1.843
    bond_coeff 136  245.0 1.945
    bond_coeff 137  200.0 2.19
    bond_coeff 138  340.0 1.77
    bond_coeff 139  317.0 1.495
    bond_coeff 140  317.0 1.504
    bond_coeff 141  317.0 1.504
    bond_coeff 142  317.0 1.504
    bond_coeff 143  317.0 1.495
    bond_coeff 144  337.0 1.449
    bond_coeff 145  280.0 1.51
    bond_coeff 146  532.8 1.46
    bond_coeff 147  382.0 1.448
    bond_coeff 148  375.0 1.49
    bond_coeff 149  212.0 1.82
    bond_coeff 150  337.0 1.475
    bond_coeff 151  337.0 1.449
    bond_coeff 152  187.0 1.86
    bond_coeff 153  317.0 1.51
    bond_coeff 154  530.0 1.34
    bond_coeff 155  274.0 1.336
    bond_coeff 156  250.0 1.74
    bond_coeff 157  166.0 2.038
    bond_coeff 158  300.0 1.685
    bond_coeff 159  250.0 1.73
    bond_coeff 160  340.0 0.5
    bond_coeff 161  250.0 1.76
    bond_coeff 162  250.0 1.76
    bond_coeff 163  250.0 1.73
    bond_coeff 164  250.0 1.76
    bond_coeff 165  250.0 1.74
    bond_coeff 166  222.0 1.81
    bond_coeff 167  144.0 2.15
    bond_coeff 168  340.0 0.1
    bond_coeff 169  550.0 1.12
    bond_coeff 170  650.0 1.157
    bond_coeff 171  400.0 1.41
    bond_coeff 172  550.0 1.24
    bond_coeff 173  1150.0 1.21
    bond_coeff 174  330.0 1.637
    bond_coeff 175  420.0 1.08
    bond_coeff 176  400.0 1.426
    bond_coeff 177  400.0 1.451
    bond_coeff 178  400.0 1.426
    bond_coeff 179  330.0 1.784
    bond_coeff 180  400.0 1.451
    bond_coeff 181  400.0 1.451
    bond_coeff 182  250.0 1.47
    bond_coeff 183  200.0 1.69
    bond_coeff 184  320.0 1.45
    bond_coeff 185  340.0 0.3
    bond_coeff 186  320.0 1.45
    bond_coeff 187  450.0 1.37
    bond_coeff 188  450.0 1.364
    bond_coeff 189  320.0 1.38
    bond_coeff 190  340.0 1.36
    bond_coeff 191  462.0 1.399
    bond_coeff 192  230.0 1.61
    bond_coeff 193  462.0 1.357
    bond_coeff 194  340.0 1.36
    bond_coeff 195  374.0 1.64
    bond_coeff 196  300.0 0.3
    bond_coeff 197  300.0 1.725
    bond_coeff 198  300.0 1.725
    bond_coeff 199  300.0 1.725
    bond_coeff 200  300.0 1.725
    bond_coeff 201  300.0 1.725
    bond_coeff 202  300.0 1.725
    bond_coeff 203  300.0 1.725
    bond_coeff 204  223.0 2.02
    bond_coeff 205  700.0 1.53
    bond_coeff 206  340.0 0.5
    bond_coeff 207  340.0 0.3
    bond_coeff 208  700.0 1.44
    bond_coeff 209  367.0 0.3
    bond_coeff 210  434.0 1.01
    bond_coeff 211  427.0 1.381
    bond_coeff 212  427.0 1.381
    bond_coeff 213  434.0 1.67
    bond_coeff 214  427.0 1.381
    bond_coeff 215  427.0 1.381
    bond_coeff 216  337.0 1.449
    bond_coeff 217  500.0 1.27
    bond_coeff 218  40.0 2.05
    bond_coeff 219  340.0 0.3
    bond_coeff 220  340.0 0.3
    bond_coeff 221  340.0 0.1
    bond_coeff 222  340.0 0.3
    bond_coeff 223  340.0 0.3
    bond_coeff 224  367.0 0.3
    bond_coeff 225  340.0 0.3
    bond_coeff 226  340.0 0.3
    bond_coeff 227  367.0 0.3
    bond_coeff 228  367.0 0.3
    bond_coeff 229  300.0 0.3
    bond_coeff 230  340.0 0.1
    bond_coeff 231  600.0 0.9572
    bond_coeff 232  900.0 0.15
    bond_coeff 233  40.0 2.05
    bond_coeff 234  529.6 0.9572
    bond_coeff 235  600.0 0.9572
    bond_coeff 236  900.0 0.175
    bond_coeff 237  600.0 0.9572
    bond_coeff 238  900.0 0.7
    bond_coeff 239  600.0 1.0
    bond_coeff 240  350.0 1.445
    bond_coeff 241  434.0 1.01
    bond_coeff 242  481.0 1.34
    bond_coeff 243  340.0 1.77
    bond_coeff 244  382.0 1.448
    bond_coeff 245  266.0 1.74
    bond_coeff 246  434.0 1.01
    bond_coeff 247  434.0 1.01
    bond_coeff 248  434.0 1.01
    bond_coeff 249  434.0 1.01
    bond_coeff 250  434.0 1.01
    bond_coeff 251  434.0 1.01
    bond_coeff 252  166.0 1.48
    bond_coeff 253  340.0 1.08
    bond_coeff 254  340.0 1.08
    bond_coeff 255  340.0 1.09
    bond_coeff 256  340.0 1.08
    bond_coeff 257  340.0 1.088
    bond_coeff 258  532.8 1.084
    bond_coeff 259  166.0 1.48
    bond_coeff 260  340.0 1.08
    bond_coeff 261  549.0 1.34
    bond_coeff 262  427.0 1.433
    bond_coeff 263  549.0 1.34
    bond_coeff 264  448.0 1.365
    bond_coeff 265  367.0 1.08
    bond_coeff 266  300.0 1.9
    bond_coeff 267  250.0 2.08
    bond_coeff 268  385.0 1.46
    bond_coeff 269  317.0 1.51
    bond_coeff 270  448.0 1.365
    bond_coeff 271  700.0 1.305
    bond_coeff 272  469.0 1.4
    bond_coeff 273  367.0 1.08
    bond_coeff 274  427.0 1.433
    bond_coeff 275  400.0 1.45
    bond_coeff 276  481.0 1.34
    bond_coeff 277  483.0 1.339
    bond_coeff 278  427.0 1.381
    bond_coeff 279  469.0 1.404
    bond_coeff 280  414.0 1.391
    bond_coeff 281  220.0 1.78
    bond_coeff 282  300.0 1.87
    bond_coeff 283  250.0 2.08
    bond_coeff 284  340.0 1.77
    bond_coeff 285  469.0 1.4
    bond_coeff 286  546.0 1.367
    bond_coeff 287  469.0 1.4
    bond_coeff 288  469.0 1.421
    bond_coeff 289  317.0 1.49
    bond_coeff 290  382.0 1.385
    bond_coeff 291  400.0 1.46
    bond_coeff 292  427.0 1.433
    bond_coeff 293  367.0 1.08
    bond_coeff 294  340.0 1.08
    bond_coeff 295  367.0 1.08
    bond_coeff 296  367.0 1.08
    bond_coeff 297  367.0 1.08
    bond_coeff 298  367.0 1.08
    bond_coeff 299  367.0 1.08
    bond_coeff 300  367.0 1.08
    bond_coeff 301  385.0 1.46
    bond_coeff 302  457.0 1.29
    bond_coeff 303  549.0 1.365
    bond_coeff 304  385.0 1.46
    bond_coeff 305  337.0 1.475
    bond_coeff 306  525.0 1.48
    bond_coeff 307  434.0 1.01
    bond_coeff 308  434.0 1.01
    bond_coeff 309  481.0 1.34
    bond_coeff 310  481.0 1.34
    bond_coeff 311  500.0 1.32
    bond_coeff 312  502.0 1.324
    bond_coeff 313  461.0 1.354
    bond_coeff 314  461.0 1.354
    bond_coeff 315  483.0 1.339
    bond_coeff 316  550.0 1.21
    bond_coeff 317  457.0 1.29
    bond_coeff 318  436.0 1.374
    bond_coeff 319  400.0 1.349
    bond_coeff 320  440.0 1.371
    bond_coeff 321  428.0 1.38
    bond_coeff 322  477.0 1.343
    bond_coeff 323  427.0 1.381
    bond_coeff 324  427.0 1.381
    bond_coeff 325  385.0 1.44
    bond_coeff 326  367.0 1.08
    bond_coeff 327  367.0 1.08
    bond_coeff 328  367.0 1.08
    bond_coeff 329  520.0 1.37
    bond_coeff 330  414.0 1.391
    bond_coeff 331  388.0 1.459
    bond_coeff 332  447.0 1.419
    bond_coeff 333  469.0 1.424
    bond_coeff 334  436.0 1.374
    bond_coeff 335  400.0 1.28
    bond_coeff 336  529.0 1.304
    bond_coeff 337  488.0 1.335
    bond_coeff 338  410.0 1.394
    bond_coeff 339  410.0 1.394
    bond_coeff 340  410.0 1.32
    bond_coeff 341  367.0 1.08
    bond_coeff 342  440.0 1.371
    bond_coeff 343  367.0 1.08
    bond_coeff 344  108.0 2.25
    bond_coeff 345  300.0 1.87
    bond_coeff 346  300.0 1.87
    bond_coeff 347  300.0 1.87
    bond_coeff 348  300.0 1.87
    bond_coeff 349  300.0 1.87
    bond_coeff 350  151.0 2.19
    bond_coeff 351  250.0 2.08
    bond_coeff 352  250.0 2.08
    bond_coeff 353  250.0 2.08
    bond_coeff 354  250.0 2.08
    bond_coeff 355  250.0 2.08
    bond_coeff 356  108.0 2.44
    bond_coeff 357  500.0 1.8
    bond_coeff 358  546.0 1.352
    bond_coeff 359  385.0 1.46
    bond_coeff 360  520.0 1.37
    bond_coeff 361  520.0 1.37
    bond_coeff 362  385.0 1.46
    bond_coeff 363  512.0 1.375
    bond_coeff 364  385.0 1.46
    bond_coeff 365  546.0 1.367
    bond_coeff 366  520.0 1.37
    bond_coeff 367  520.0 1.37
    bond_coeff 368  385.0 1.46
    bond_coeff 369  385.0 1.46
    bond_coeff 370  385.0 1.46
    bond_coeff 371  469.0 1.424
    bond_coeff 372  469.0 1.424
    bond_coeff 373  490.0 1.335
    bond_coeff 374  317.0 1.522
    bond_coeff 375  337.0 1.449
    bond_coeff 376  260.0 1.52
    bond_coeff 377  550.0 1.225
    bond_coeff 378  94.0 2.32
    bond_coeff 379  549.0 1.345
    angle_coeff 1  33.0 109.47
    angle_coeff 2  50.0 109.5
    angle_coeff 3  63.0 112.4
    angle_coeff 4  63.0 112.4
    angle_coeff 5  80.0 109.5
    angle_coeff 6  63.0 112.4
    angle_coeff 7  63.0 112.4
    angle_coeff 8  80.0 109.5
    angle_coeff 9  63.0 112.4
    angle_coeff 10  63.0 112.4
    angle_coeff 11  63.0 112.4
    angle_coeff 12  63.0 112.4
    angle_coeff 13  80.0 109.5
    angle_coeff 14  63.0 114.0
    angle_coeff 15  63.0 112.4
    angle_coeff 16  50.0 108.6
    angle_coeff 17  50.0 114.7
    angle_coeff 18  50.0 114.7
    angle_coeff 19  80.0 109.5
    angle_coeff 20  80.0 109.5
    angle_coeff 21  80.0 109.5
    angle_coeff 22  80.0 110.3
    angle_coeff 23  80.0 111.2
    angle_coeff 24  56.2 109.47
    angle_coeff 25  56.2 109.47
    angle_coeff 26  56.2 109.47
    angle_coeff 27  56.2 109.47
    angle_coeff 28  80.0 111.2
    angle_coeff 29  63.0 112.4
    angle_coeff 30  63.0 114.0
    angle_coeff 31  63.0 112.4
    angle_coeff 32  63.0 112.4
    angle_coeff 33  80.0 111.2
    angle_coeff 34  80.0 111.2
    angle_coeff 35  63.0 115.6
    angle_coeff 36  80.0 120.4
    angle_coeff 37  80.0 121.0
    angle_coeff 38  80.0 121.4
    angle_coeff 39  80.0 126.0
    angle_coeff 40  80.0 121.0
    angle_coeff 41  80.0 120.4
    angle_coeff 42  70.0 115.0
    angle_coeff 43  80.0 120.4
    angle_coeff 44  70.0 120.0
    angle_coeff 45  85.0 120.0
    angle_coeff 46  70.0 108.0
    angle_coeff 47  70.0 116.0
    angle_coeff 48  80.0 111.0
    angle_coeff 49  80.0 117.2
    angle_coeff 50  80.0 120.4
    angle_coeff 51  81.0 111.4
    angle_coeff 52  81.0 111.4
    angle_coeff 53  83.0 123.4
    angle_coeff 54  75.0 109.0
    angle_coeff 55  75.0 119.0
    angle_coeff 56  70.0 114.2
    angle_coeff 57  70.0 116.6
    angle_coeff 58  70.0 116.6
    angle_coeff 59  70.0 116.6
    angle_coeff 60  70.0 116.6
    angle_coeff 61  70.0 116.6
    angle_coeff 62  80.0 122.9
    angle_coeff 63  81.0 111.4
    angle_coeff 64  70.0 116.0
    angle_coeff 65  80.0 120.4
    angle_coeff 66  35.0 115.0
    angle_coeff 67  35.0 115.0
    angle_coeff 68  35.0 123.0
    angle_coeff 69  40.0 114.0
    angle_coeff 70  40.0 115.0
    angle_coeff 71  40.0 115.0
    angle_coeff 72  70.0 115.5
    angle_coeff 73  80.0 125.3
    angle_coeff 74  35.0 115.0
    angle_coeff 75  70.0 115.5
    angle_coeff 76  70.0 116.0
    angle_coeff 77  70.0 120.0
    angle_coeff 78  80.0 120.4
    angle_coeff 79  81.0 111.4
    angle_coeff 80  85.0 120.0
    angle_coeff 81  70.0 116.0
    angle_coeff 82  80.0 116.0
    angle_coeff 83  80.0 124.0
    angle_coeff 84  65.0 117.0
    angle_coeff 85  70.0 117.0
    angle_coeff 86  70.0 117.0
    angle_coeff 87  70.0 117.0
    angle_coeff 88  70.0 117.0
    angle_coeff 89  80.0 126.0
    angle_coeff 90  80.0 126.0
    angle_coeff 91  35.0 122.0
    angle_coeff 92  80.0 122.5
    angle_coeff 93  70.0 114.1
    angle_coeff 94  70.0 118.6
    angle_coeff 95  70.0 118.6
    angle_coeff 96  80.0 120.6
    angle_coeff 97  70.0 111.3
    angle_coeff 98  70.0 111.3
    angle_coeff 99  80.0 128.8
    angle_coeff 100  75.0 109.0
    angle_coeff 101  75.0 119.0
    angle_coeff 102  70.0 116.0
    angle_coeff 103  80.0 120.4
    angle_coeff 104  80.0 128.2
    angle_coeff 105  70.0 115.4
    angle_coeff 106  70.0 118.6
    angle_coeff 107  80.0 120.9
    angle_coeff 108  70.0 116.6
    angle_coeff 109  80.0 122.9
    angle_coeff 110  10.0 117.0
    angle_coeff 111  35.0 113.0
    angle_coeff 112  35.0 113.0
    angle_coeff 113  55.0 108.5
    angle_coeff 114  55.0 108.5
    angle_coeff 115  55.0 108.5
    angle_coeff 116  55.0 108.5
    angle_coeff 117  49.0 105.4
    angle_coeff 118  5.0 109.47
    angle_coeff 119  10.0 109.47
    angle_coeff 120  10.0 109.47
    angle_coeff 121  35.0 109.0
    angle_coeff 122  10.0 109.47
    angle_coeff 123  35.0 113.0
    angle_coeff 124  55.0 108.5
    angle_coeff 125  55.0 108.5
    angle_coeff 126  100.0 120.5
    angle_coeff 127  74.0 110.0
    angle_coeff 128  100.0 126.0
    angle_coeff 129  10.0 109.47
    angle_coeff 130  33.0 109.47
    angle_coeff 131  63.0 112.4
    angle_coeff 132  63.0 111.1
    angle_coeff 133  80.0 109.5
    angle_coeff 134  63.0 111.1
    angle_coeff 135  63.0 111.5
    angle_coeff 136  63.0 112.4
    angle_coeff 137  80.0 109.5
    angle_coeff 138  63.0 111.1
    angle_coeff 139  63.0 111.5
    angle_coeff 140  63.0 111.5
    angle_coeff 141  63.0 111.5
    angle_coeff 142  80.0 109.5
    angle_coeff 143  80.0 109.5
    angle_coeff 144  80.0 109.5
    angle_coeff 145  80.0 109.5
    angle_coeff 146  63.0 110.1
    angle_coeff 147  80.0 109.5
    angle_coeff 148  80.0 109.7
    angle_coeff 149  80.0 109.7
    angle_coeff 150  56.2 109.47
    angle_coeff 151  56.2 109.47
    angle_coeff 152  56.2 109.47
    angle_coeff 153  56.2 109.47
    angle_coeff 154  80.0 109.7
    angle_coeff 155  63.0 112.4
    angle_coeff 156  80.0 109.5
    angle_coeff 157  80.0 109.5
    angle_coeff 158  80.0 109.5
    angle_coeff 159  80.0 109.5
    angle_coeff 160  70.0 124.0
    angle_coeff 161  70.0 124.0
    angle_coeff 162  70.0 124.0
    angle_coeff 163  70.0 118.0
    angle_coeff 164  70.0 118.0
    angle_coeff 165  70.0 118.0
    angle_coeff 166  70.0 124.0
    angle_coeff 167  70.0 124.0
    angle_coeff 168  70.0 124.0
    angle_coeff 169  70.0 118.0
    angle_coeff 170  70.0 118.0
    angle_coeff 171  70.0 118.0
    angle_coeff 172  70.0 118.0
    angle_coeff 173  70.0 118.0
    angle_coeff 174  70.0 118.0
    angle_coeff 175  70.0 118.0
    angle_coeff 176  70.0 124.0
    angle_coeff 177  70.0 124.0
    angle_coeff 178  70.0 124.0
    angle_coeff 179  70.0 124.0
    angle_coeff 180  70.0 118.0
    angle_coeff 181  70.0 118.0
    angle_coeff 182  70.0 118.0
    angle_coeff 183  70.0 120.0
    angle_coeff 184  85.0 120.0
    angle_coeff 185  85.0 120.0
    angle_coeff 186  85.0 120.0
    angle_coeff 187  85.0 120.0
    angle_coeff 188  85.0 120.0
    angle_coeff 189  77.0 109.1
    angle_coeff 190  40.0 109.5
    angle_coeff 191  50.0 109.5
    angle_coeff 192  63.0 111.1
    angle_coeff 193  63.0 111.1
    angle_coeff 194  40.0 109.5
    angle_coeff 195  40.0 109.5
    angle_coeff 196  63.0 109.5
    angle_coeff 197  50.0 109.5
    angle_coeff 198  50.0 109.5
    angle_coeff 199  58.35 112.7
    angle_coeff 200  63.0 111.1
    angle_coeff 201  50.0 108.6
    angle_coeff 202  50.0 114.7
    angle_coeff 203  58.35 112.7
    angle_coeff 204  50.0 109.5
    angle_coeff 205  50.0 109.5
    angle_coeff 206  69.0 109.8
    angle_coeff 207  69.0 109.8
    angle_coeff 208  78.0 111.7
    angle_coeff 209  50.0 108.6
    angle_coeff 210  50.0 109.5
    angle_coeff 211  63.0 110.1
    angle_coeff 212  80.0 109.7
    angle_coeff 213  80.0 109.7
    angle_coeff 214  50.0 114.7
    angle_coeff 215  56.2 109.47
    angle_coeff 216  56.2 109.47
    angle_coeff 217  56.2 109.47
    angle_coeff 218  56.2 109.47
    angle_coeff 219  80.0 111.2
    angle_coeff 220  33.0 107.8
    angle_coeff 221  35.0 108.5
    angle_coeff 222  35.0 108.5
    angle_coeff 223  35.0 109.5
    angle_coeff 224  35.0 109.5
    angle_coeff 225  35.0 109.5
    angle_coeff 226  35.0 109.5
    angle_coeff 227  35.0 109.5
    angle_coeff 228  35.0 109.5
    angle_coeff 229  35.0 109.5
    angle_coeff 230  35.0 109.5
    angle_coeff 231  35.0 109.5
    angle_coeff 232  37.5 110.7
    angle_coeff 233  40.0 107.0
    angle_coeff 234  51.0 107.6
    angle_coeff 235  35.0 109.5
    angle_coeff 236  50.0 109.5
    angle_coeff 237  63.0 111.1
    angle_coeff 238  63.0 112.4
    angle_coeff 239  35.0 109.5
    angle_coeff 240  40.0 109.5
    angle_coeff 241  40.0 109.5
    angle_coeff 242  50.0 109.5
    angle_coeff 243  50.0 109.5
    angle_coeff 244  50.0 109.5
    angle_coeff 245  50.0 114.7
    angle_coeff 246  63.0 112.0
    angle_coeff 247  63.0 114.0
    angle_coeff 248  63.0 114.0
    angle_coeff 249  80.0 111.2
    angle_coeff 250  35.0 109.5
    angle_coeff 251  37.5 110.7
    angle_coeff 252  50.0 109.5
    angle_coeff 253  58.35 112.7
    angle_coeff 254  35.0 109.5
    angle_coeff 255  80.0 111.2
    angle_coeff 256  80.0 111.2
    angle_coeff 257  35.0 109.5
    angle_coeff 258  80.0 111.2
    angle_coeff 259  35.0 109.5
    angle_coeff 260  63.0 110.1
    angle_coeff 261  65.0 109.0
    angle_coeff 262  35.0 109.5
    angle_coeff 263  80.0 111.2
    angle_coeff 264  35.0 109.5
    angle_coeff 265  63.0 114.0
    angle_coeff 266  41.0 109.5
    angle_coeff 267  43.0 109.5
    angle_coeff 268  43.0 109.5
    angle_coeff 269  51.0 107.6
    angle_coeff 270  69.0 109.8
    angle_coeff 271  69.0 110.0
    angle_coeff 272  69.0 110.0
    angle_coeff 273  78.0 111.7
    angle_coeff 274  75.0 111.0
    angle_coeff 275  75.0 112.0
    angle_coeff 276  35.0 109.5
    angle_coeff 277  50.0 108.6
    angle_coeff 278  50.0 109.5
    angle_coeff 279  35.0 109.5
    angle_coeff 280  63.0 115.6
    angle_coeff 281  35.0 109.5
    angle_coeff 282  63.0 114.0
    angle_coeff 283  35.0 109.5
    angle_coeff 284  50.0 114.7
    angle_coeff 285  63.0 114.0
    angle_coeff 286  35.0 109.5
    angle_coeff 287  63.0 114.0
    angle_coeff 288  35.0 109.5
    angle_coeff 289  63.0 115.6
    angle_coeff 290  35.0 109.5
    angle_coeff 291  80.0 110.0
    angle_coeff 292  80.0 113.0
    angle_coeff 293  37.5 110.7
    angle_coeff 294  35.0 105.0
    angle_coeff 295  63.0 105.0
    angle_coeff 296  35.0 109.5
    angle_coeff 297  80.0 111.2
    angle_coeff 298  35.0 105.0
    angle_coeff 299  63.0 111.1
    angle_coeff 300  41.0 109.5
    angle_coeff 301  43.0 109.5
    angle_coeff 302  35.0 109.5
    angle_coeff 303  50.0 109.5
    angle_coeff 304  50.0 109.5
    angle_coeff 305  35.0 109.5
    angle_coeff 306  80.0 109.7
    angle_coeff 307  35.0 109.5
    angle_coeff 308  60.0 112.0
    angle_coeff 309  70.0 124.0
    angle_coeff 310  70.0 124.0
    angle_coeff 311  70.0 124.0
    angle_coeff 312  70.0 118.0
    angle_coeff 313  70.0 118.0
    angle_coeff 314  70.0 118.0
    angle_coeff 315  70.0 124.0
    angle_coeff 316  70.0 124.0
    angle_coeff 317  70.0 124.0
    angle_coeff 318  70.0 118.0
    angle_coeff 319  70.0 118.0
    angle_coeff 320  70.0 118.0
    angle_coeff 321  70.0 118.0
    angle_coeff 322  70.0 118.0
    angle_coeff 323  70.0 118.0
    angle_coeff 324  70.0 118.0
    angle_coeff 325  70.0 124.0
    angle_coeff 326  70.0 124.0
    angle_coeff 327  70.0 124.0
    angle_coeff 328  70.0 124.0
    angle_coeff 329  70.0 118.0
    angle_coeff 330  70.0 118.0
    angle_coeff 331  70.0 118.0
    angle_coeff 332  70.0 118.0
    angle_coeff 333  70.0 118.0
    angle_coeff 334  70.0 118.0
    angle_coeff 335  70.0 118.0
    angle_coeff 336  35.0 92.07
    angle_coeff 337  44.0 96.0
    angle_coeff 338  44.0 96.0
    angle_coeff 339  44.0 96.0
    angle_coeff 340  5.0 109.47
    angle_coeff 341  10.0 109.47
    angle_coeff 342  10.0 160.0
    angle_coeff 343  150.0 96.7
    angle_coeff 344  150.0 96.7
    angle_coeff 345  150.0 96.7
    angle_coeff 346  150.0 96.7
    angle_coeff 347  50.0 96.0
    angle_coeff 348  62.0 98.9
    angle_coeff 349  62.0 98.9
    angle_coeff 350  68.0 103.7
    angle_coeff 351  68.0 103.7
    angle_coeff 352  68.0 103.7
    angle_coeff 353  65.0 100.0
    angle_coeff 354  5.0 109.47
    angle_coeff 355  10.0 109.47
    angle_coeff 356  10.0 160.0
    angle_coeff 357  150.0 96.7
    angle_coeff 358  150.0 96.7
    angle_coeff 359  150.0 96.7
    angle_coeff 360  150.0 96.7
    angle_coeff 361  62.0 104.2
    angle_coeff 362  62.0 104.2
    angle_coeff 363  74.0 92.4
    angle_coeff 364  10.0 130.0
    angle_coeff 365  10.0 130.0
    angle_coeff 366  74.0 97.0
    angle_coeff 367  10.0 130.0
    angle_coeff 368  74.0 90.0
    angle_coeff 369  74.0 97.0
    angle_coeff 370  74.0 97.0
    angle_coeff 371  62.0 94.0
    angle_coeff 372  10.0 109.47
    angle_coeff 373  33.0 109.47
    angle_coeff 374  150.0 180.0
    angle_coeff 375  170.0 180.0
    angle_coeff 376  100.0 180.0
    angle_coeff 377  150.0 180.0
    angle_coeff 378  140.0 180.0
    angle_coeff 379  150.0 180.0
    angle_coeff 380  10.0 90.0
    angle_coeff 381  112.0 180.0
    angle_coeff 382  150.0 180.0
    angle_coeff 383  160.0 180.0
    angle_coeff 384  150.0 180.0
    angle_coeff 385  160.0 180.0
    angle_coeff 386  160.0 180.0
    angle_coeff 387  150.0 180.0
    angle_coeff 388  150.0 180.0
    angle_coeff 389  100.0 111.8
    angle_coeff 390  83.0 116.9
    angle_coeff 391  83.0 116.9
    angle_coeff 392  100.0 111.8
    angle_coeff 393  55.0 108.5
    angle_coeff 394  55.0 108.5
    angle_coeff 395  83.0 116.9
    angle_coeff 396  100.0 111.8
    angle_coeff 397  60.0 109.5
    angle_coeff 398  83.0 116.9
    angle_coeff 399  5.0 109.47
    angle_coeff 400  10.0 109.47
    angle_coeff 401  75.0 111.0
    angle_coeff 402  10.0 109.47
    angle_coeff 403  75.0 111.0
    angle_coeff 404  75.0 111.0
    angle_coeff 405  75.0 111.0
    angle_coeff 406  83.0 116.9
    angle_coeff 407  100.0 111.8
    angle_coeff 408  60.0 109.5
    angle_coeff 409  100.0 113.0
    angle_coeff 410  100.0 113.0
    angle_coeff 411  100.0 113.0
    angle_coeff 412  70.0 104.5
    angle_coeff 413  10.0 125.0
    angle_coeff 414  100.0 120.5
    angle_coeff 415  100.0 120.5
    angle_coeff 416  100.0 120.5
    angle_coeff 417  100.0 120.5
    angle_coeff 418  100.0 120.5
    angle_coeff 419  100.0 120.5
    angle_coeff 420  10.0 125.0
    angle_coeff 421  70.0 106.5
    angle_coeff 422  70.0 107.0
    angle_coeff 423  10.0 125.0
    angle_coeff 424  70.0 104.0
    angle_coeff 425  70.0 106.5
    angle_coeff 426  70.0 106.5
    angle_coeff 427  70.0 108.9
    angle_coeff 428  20.0 145.0
    angle_coeff 429  40.0 130.0
    angle_coeff 430  33.0 109.47
    angle_coeff 431  62.0 96.0
    angle_coeff 432  74.0 107.0
    angle_coeff 433  10.0 90.0
    angle_coeff 434  50.0 121.9
    angle_coeff 435  70.0 126.4
    angle_coeff 436  46.0 115.7
    angle_coeff 437  50.0 121.9
    angle_coeff 438  50.0 121.9
    angle_coeff 439  50.0 118.0
    angle_coeff 440  50.0 121.9
    angle_coeff 441  50.0 118.0
    angle_coeff 442  50.0 121.9
    angle_coeff 443  70.0 112.0
    angle_coeff 444  70.0 108.6
    angle_coeff 445  10.0 109.5
    angle_coeff 446  10.0 100.0
    angle_coeff 447  35.0 110.2
    angle_coeff 448  35.0 119.8
    angle_coeff 449  35.0 120.0
    angle_coeff 450  38.0 118.4
    angle_coeff 451  38.0 118.4
    angle_coeff 452  38.0 118.4
    angle_coeff 453  38.0 118.4
    angle_coeff 454  35.0 119.8
    angle_coeff 455  50.0 118.0
    angle_coeff 456  50.0 121.9
    angle_coeff 457  70.0 118.0
    angle_coeff 458  35.0 120.0
    angle_coeff 459  35.0 118.0
    angle_coeff 460  70.0 125.2
    angle_coeff 461  50.0 120.0
    angle_coeff 462  100.0 111.0
    angle_coeff 463  35.0 119.8
    angle_coeff 464  70.0 118.0
    angle_coeff 465  70.0 117.0
    angle_coeff 466  35.0 119.8
    angle_coeff 467  70.0 118.0
    angle_coeff 468  35.0 119.8
    angle_coeff 469  70.0 118.0
    angle_coeff 470  40.0 113.0
    angle_coeff 471  55.0 128.0
    angle_coeff 472  70.0 121.0
    angle_coeff 473  20.0 126.0
    angle_coeff 474  33.0 109.47
    angle_coeff 475  75.0 104.52
    angle_coeff 476  50.0 52.26
    angle_coeff 477  34.05 104.52
    angle_coeff 478  75.0 109.5
    angle_coeff 479  50.0 54.75
    angle_coeff 480  75.0 104.52
    angle_coeff 481  50.0 109.47
    angle_coeff 482  50.0 110.6948
    angle_coeff 483  75.0 109.47
    angle_coeff 484  51.8 107.2
    angle_coeff 485  51.8 107.2
    angle_coeff 486  51.8 107.2
    angle_coeff 487  51.8 107.2
    angle_coeff 488  51.8 107.2
    angle_coeff 489  51.8 107.2
    angle_coeff 490  51.8 107.2
    angle_coeff 491  51.8 107.2
    angle_coeff 492  51.8 107.2
    angle_coeff 493  51.8 107.2
    angle_coeff 494  63.0 111.1
    angle_coeff 495  10.0 100.0
    angle_coeff 496  35.0 109.5
    angle_coeff 497  43.2 108.1
    angle_coeff 498  43.2 108.1
    angle_coeff 499  43.2 108.1
    angle_coeff 500  43.6 106.4
    angle_coeff 501  10.0 109.5
    angle_coeff 502  35.0 116.0
    angle_coeff 503  50.0 116.0
    angle_coeff 504  50.0 116.0
    angle_coeff 505  63.0 112.0
    angle_coeff 506  35.0 115.0
    angle_coeff 507  50.0 108.6
    angle_coeff 508  50.0 108.6
    angle_coeff 509  50.0 109.5
    angle_coeff 510  33.0 109.47
    angle_coeff 511  10.0 109.5
    angle_coeff 512  33.0 109.47
    angle_coeff 513  37.5 109.47
    angle_coeff 514  80.0 108.0
    angle_coeff 515  80.0 121.5
    angle_coeff 516  85.0 119.7
    angle_coeff 517  70.0 119.7
    angle_coeff 518  70.0 130.0
    angle_coeff 519  10.0 90.0
    angle_coeff 520  35.0 114.5
    angle_coeff 521  35.0 117.0
    angle_coeff 522  35.0 117.0
    angle_coeff 523  35.0 119.7
    angle_coeff 524  35.0 120.0
    angle_coeff 525  50.0 112.0
    angle_coeff 526  60.0 114.0
    angle_coeff 527  2.0 90.0
    angle_coeff 528  35.0 120.0
    angle_coeff 529  70.0 123.0
    angle_coeff 530  70.0 123.0
    angle_coeff 531  70.0 124.0
    angle_coeff 532  70.0 124.0
    angle_coeff 533  75.0 121.5
    angle_coeff 534  80.0 121.5
    angle_coeff 535  85.0 119.4
    angle_coeff 536  85.0 120.7
    angle_coeff 537  35.0 123.3
    angle_coeff 538  85.0 117.0
    angle_coeff 539  85.0 119.7
    angle_coeff 540  2.0 90.0
    angle_coeff 541  35.0 120.0
    angle_coeff 542  70.0 123.0
    angle_coeff 543  70.0 123.0
    angle_coeff 544  70.0 124.0
    angle_coeff 545  35.0 119.1
    angle_coeff 546  70.0 120.0
    angle_coeff 547  70.0 120.0
    angle_coeff 548  70.0 121.2
    angle_coeff 549  85.0 119.4
    angle_coeff 550  35.0 119.1
    angle_coeff 551  35.0 119.7
    angle_coeff 552  60.0 114.0
    angle_coeff 553  75.0 120.0
    angle_coeff 554  35.0 135.0
    angle_coeff 555  70.0 119.7
    angle_coeff 556  70.0 124.0
    angle_coeff 557  35.0 119.1
    angle_coeff 558  35.0 119.1
    angle_coeff 559  70.0 120.0
    angle_coeff 560  70.0 120.0
    angle_coeff 561  70.0 121.2
    angle_coeff 562  85.0 119.4
    angle_coeff 563  40.0 121.0
    angle_coeff 564  80.0 122.0
    angle_coeff 565  80.0 122.0
    angle_coeff 566  80.0 125.0
    angle_coeff 567  70.0 120.0
    angle_coeff 568  85.0 120.0
    angle_coeff 569  70.0 119.7
    angle_coeff 570  10.0 90.0
    angle_coeff 571  63.0 120.0
    angle_coeff 572  70.0 120.0
    angle_coeff 573  70.0 120.0
    angle_coeff 574  70.0 120.0
    angle_coeff 575  70.0 120.0
    angle_coeff 576  70.0 120.0
    angle_coeff 577  70.0 120.0
    angle_coeff 578  70.0 120.0
    angle_coeff 579  70.0 120.0
    angle_coeff 580  70.0 120.0
    angle_coeff 581  70.0 124.0
    angle_coeff 582  75.0 120.0
    angle_coeff 583  80.0 120.0
    angle_coeff 584  80.0 120.0
    angle_coeff 585  85.0 119.4
    angle_coeff 586  85.0 120.0
    angle_coeff 587  2.0 90.0
    angle_coeff 588  35.0 119.1
    angle_coeff 589  35.0 120.0
    angle_coeff 590  35.0 120.0
    angle_coeff 591  70.0 124.0
    angle_coeff 592  70.0 120.0
    angle_coeff 593  70.0 120.0
    angle_coeff 594  70.0 120.1
    angle_coeff 595  70.0 120.1
    angle_coeff 596  35.0 116.0
    angle_coeff 597  70.0 116.0
    angle_coeff 598  70.0 116.0
    angle_coeff 599  70.0 119.3
    angle_coeff 600  70.0 120.0
    angle_coeff 601  70.0 121.5
    angle_coeff 602  70.0 121.5
    angle_coeff 603  70.0 124.0
    angle_coeff 604  75.0 120.0
    angle_coeff 605  35.0 120.0
    angle_coeff 606  70.0 108.7
    angle_coeff 607  70.0 116.0
    angle_coeff 608  70.0 120.0
    angle_coeff 609  70.0 121.5
    angle_coeff 610  70.0 123.3
    angle_coeff 611  35.0 120.0
    angle_coeff 612  63.0 120.0
    angle_coeff 613  70.0 108.7
    angle_coeff 614  70.0 117.3
    angle_coeff 615  70.0 123.5
    angle_coeff 616  70.0 128.6
    angle_coeff 617  70.0 128.6
    angle_coeff 618  35.0 119.1
    angle_coeff 619  70.0 108.7
    angle_coeff 620  70.0 123.3
    angle_coeff 621  85.0 119.4
    angle_coeff 622  75.0 120.0
    angle_coeff 623  75.0 120.0
    angle_coeff 624  85.0 119.4
    angle_coeff 625  35.0 120.0
    angle_coeff 626  85.0 120.0
    angle_coeff 627  35.0 126.9
    angle_coeff 628  63.0 106.4
    angle_coeff 629  70.0 107.4
    angle_coeff 630  35.0 120.0
    angle_coeff 631  63.0 120.0
    angle_coeff 632  70.0 124.0
    angle_coeff 633  35.0 128.2
    angle_coeff 634  70.0 111.8
    angle_coeff 635  70.0 124.1
    angle_coeff 636  85.0 120.0
    angle_coeff 637  70.0 124.0
    angle_coeff 638  10.0 90.0
    angle_coeff 639  35.0 120.0
    angle_coeff 640  2.0 90.0
    angle_coeff 641  35.0 120.0
    angle_coeff 642  70.0 118.7
    angle_coeff 643  70.0 124.0
    angle_coeff 644  35.0 123.3
    angle_coeff 645  85.0 117.0
    angle_coeff 646  2.0 90.0
    angle_coeff 647  35.0 120.0
    angle_coeff 648  70.0 124.0
    angle_coeff 649  70.0 124.0
    angle_coeff 650  35.0 106.0
    angle_coeff 651  35.0 122.0
    angle_coeff 652  35.0 120.0
    angle_coeff 653  70.0 124.0
    angle_coeff 654  70.0 124.0
    angle_coeff 655  40.0 109.5
    angle_coeff 656  50.0 109.5
    angle_coeff 657  50.0 109.5
    angle_coeff 658  80.0 109.5
    angle_coeff 659  80.0 109.5
    angle_coeff 660  92.6 111.55
    angle_coeff 661  92.6 111.55
    angle_coeff 662  33.0 109.5
    angle_coeff 663  35.0 109.5
    angle_coeff 664  35.0 109.5
    angle_coeff 665  37.5 110.7
    angle_coeff 666  35.0 109.5
    angle_coeff 667  50.0 109.5
    angle_coeff 668  50.0 109.5
    angle_coeff 669  50.0 113.0
    angle_coeff 670  10.0 100.0
    angle_coeff 671  43.6 109.5
    angle_coeff 672  10.0 100.0
    angle_coeff 673  55.0 114.0
    angle_coeff 674  35.0 109.5
    angle_coeff 675  35.0 109.5
    angle_coeff 676  35.0 109.5
    angle_coeff 677  35.0 109.5
    angle_coeff 678  35.0 109.5
    angle_coeff 679  10.0 100.0
    angle_coeff 680  50.0 118.0
    angle_coeff 681  35.0 113.0
    angle_coeff 682  35.0 118.4
    angle_coeff 683  35.0 120.0
    angle_coeff 684  50.0 123.2
    angle_coeff 685  50.0 123.2
    angle_coeff 686  50.0 123.2
    angle_coeff 687  35.0 118.4
    angle_coeff 688  35.0 118.4
    angle_coeff 689  35.0 120.0
    angle_coeff 690  35.0 120.0
    angle_coeff 691  35.0 120.0
    angle_coeff 692  70.0 120.5
    angle_coeff 693  70.0 120.0
    angle_coeff 694  5.0 120.0
    angle_coeff 695  35.0 113.0
    angle_coeff 696  50.0 118.0
    angle_coeff 697  70.0 117.0
    angle_coeff 698  70.0 120.5
    angle_coeff 699  70.0 117.0
    angle_coeff 700  70.0 117.0
    angle_coeff 701  5.0 119.8
    angle_coeff 702  70.0 118.6
    angle_coeff 703  70.0 118.6
    angle_coeff 704  70.0 111.0
    angle_coeff 705  70.0 112.2
    angle_coeff 706  70.0 111.0
    angle_coeff 707  70.0 117.0
    angle_coeff 708  70.0 114.0
    angle_coeff 709  70.0 126.4
    angle_coeff 710  35.0 116.8
    angle_coeff 711  35.0 119.2
    angle_coeff 712  70.0 121.6
    angle_coeff 713  35.0 118.0
    angle_coeff 714  70.0 125.2
    angle_coeff 715  70.0 125.2
    angle_coeff 716  30.0 125.8
    angle_coeff 717  70.0 125.8
    angle_coeff 718  56.0 113.1
    angle_coeff 719  56.0 118.4
    angle_coeff 720  70.0 118.4
    angle_coeff 721  70.0 118.4
    angle_coeff 722  30.0 128.8
    angle_coeff 723  70.0 105.4
    angle_coeff 724  70.0 109.8
    angle_coeff 725  70.0 128.8
    angle_coeff 726  35.0 123.1
    angle_coeff 727  35.0 120.0
    angle_coeff 728  56.0 113.1
    angle_coeff 729  70.0 109.8
    angle_coeff 730  35.0 120.0
    angle_coeff 731  56.0 113.1
    angle_coeff 732  70.0 109.8
    angle_coeff 733  70.0 109.8
    angle_coeff 734  70.0 109.8
    angle_coeff 735  70.0 111.6
    angle_coeff 736  35.0 120.0
    angle_coeff 737  70.0 109.8
    angle_coeff 738  70.0 116.0
    angle_coeff 739  35.0 115.45
    angle_coeff 740  70.0 115.5
    angle_coeff 741  70.0 119.3
    angle_coeff 742  70.0 123.3
    angle_coeff 743  70.0 129.1
    angle_coeff 744  35.0 115.45
    angle_coeff 745  70.0 120.0
    angle_coeff 746  85.0 134.9
    angle_coeff 747  70.0 126.2
    angle_coeff 748  70.0 106.2
    angle_coeff 749  70.0 110.6
    angle_coeff 750  70.0 111.0
    angle_coeff 751  70.0 120.0
    angle_coeff 752  70.0 127.7
    angle_coeff 753  70.0 127.7
    angle_coeff 754  85.0 117.3
    angle_coeff 755  85.0 119.2
    angle_coeff 756  70.0 111.0
    angle_coeff 757  70.0 126.2
    angle_coeff 758  70.0 130.0
    angle_coeff 759  70.0 132.4
    angle_coeff 760  85.0 134.9
    angle_coeff 761  85.0 134.9
    angle_coeff 762  85.0 108.8
    angle_coeff 763  85.0 116.2
    angle_coeff 764  85.0 116.2
    angle_coeff 765  70.0 130.0
    angle_coeff 766  70.0 107.3
    angle_coeff 767  70.0 107.7
    angle_coeff 768  85.0 108.8
    angle_coeff 769  85.0 134.9
    angle_coeff 770  85.0 134.9
    angle_coeff 771  70.0 106.2
    angle_coeff 772  70.0 126.2
    angle_coeff 773  70.0 125.2
    angle_coeff 774  10.0 125.0
    angle_coeff 775  10.0 125.0
    angle_coeff 776  70.0 103.8
    angle_coeff 777  10.0 125.0
    angle_coeff 778  70.0 109.0
    angle_coeff 779  70.0 110.0
    angle_coeff 780  70.0 110.0
    angle_coeff 781  70.0 104.1
    angle_coeff 782  70.0 110.0
    angle_coeff 783  70.0 104.1
    angle_coeff 784  70.0 105.3
    angle_coeff 785  35.0 120.0
    angle_coeff 786  35.0 120.0
    angle_coeff 787  70.0 113.9
    angle_coeff 788  35.0 123.05
    angle_coeff 789  35.0 123.05
    angle_coeff 790  35.0 120.0
    angle_coeff 791  35.0 123.05
    angle_coeff 792  70.0 113.9
    angle_coeff 793  45.0 102.6
    angle_coeff 794  100.0 108.23
    angle_coeff 795  45.0 109.5
    angle_coeff 796  45.0 102.6
    angle_coeff 797  45.0 102.6
    angle_coeff 798  45.0 109.5
    angle_coeff 799  100.0 108.23
    angle_coeff 800  45.0 109.5
    angle_coeff 801  45.0 109.5
    angle_coeff 802  45.0 109.5
    angle_coeff 803  45.0 108.23
    angle_coeff 804  45.0 109.5
    angle_coeff 805  100.0 108.23
    angle_coeff 806  140.0 119.9
    angle_coeff 807  33.0 109.47
    angle_coeff 808  33.0 109.47
    angle_coeff 809  150.0 180.0
    angle_coeff 810  62.0 98.9
    angle_coeff 811  62.0 102.0
    angle_coeff 812  75.0 96.4
    angle_coeff 813  74.0 108.7
    angle_coeff 814  74.0 108.9
    angle_coeff 815  104.0 119.0
    angle_coeff 816  100.0 103.0
    angle_coeff 817  120.0 107.0
    angle_coeff 818  62.0 102.0
    angle_coeff 819  74.0 108.9
    angle_coeff 820  62.0 102.0
    angle_coeff 821  74.0 107.2
    angle_coeff 822  75.0 96.4
    angle_coeff 823  100.0 103.0
    angle_coeff 824  62.0 102.0
    angle_coeff 825  35.0 126.8
    angle_coeff 826  70.0 128.6
    angle_coeff 827  70.0 128.6
    angle_coeff 828  35.0 126.8
    angle_coeff 829  70.0 125.0
    angle_coeff 830  70.0 125.0
    angle_coeff 831  85.0 106.4
    angle_coeff 832  70.0 132.8
    angle_coeff 833  70.0 132.8
    angle_coeff 834  70.0 104.4
    angle_coeff 835  85.0 122.7
    angle_coeff 836  85.0 122.7
    angle_coeff 837  70.0 125.0
    angle_coeff 838  70.0 125.0
    angle_coeff 839  70.0 120.2
    angle_coeff 840  35.0 117.0
    angle_coeff 841  35.0 125.0
    angle_coeff 842  35.0 120.0
    angle_coeff 843  70.0 120.0
    angle_coeff 844  70.0 125.0
    angle_coeff 845  70.0 125.0
    angle_coeff 846  70.0 126.2
    angle_coeff 847  35.0 120.0
    angle_coeff 848  70.0 115.0
    angle_coeff 849  70.0 115.0
    angle_coeff 850  70.0 120.0
    angle_coeff 851  70.0 125.0
    angle_coeff 852  70.0 126.1
    angle_coeff 853  70.0 126.2
    angle_coeff 854  70.0 120.0
    angle_coeff 855  70.0 120.0
    angle_coeff 856  70.0 122.0
    angle_coeff 857  70.0 130.0
    angle_coeff 858  70.0 106.2
    angle_coeff 859  70.0 127.7
    angle_coeff 860  35.0 120.0
    angle_coeff 861  70.0 111.0
    angle_coeff 862  70.0 124.5
    angle_coeff 863  35.0 128.2
    angle_coeff 864  70.0 111.0
    angle_coeff 865  70.0 130.7
    angle_coeff 866  70.0 125.0
    angle_coeff 867  70.0 121.6
    angle_coeff 868  70.0 125.0
    angle_coeff 869  35.0 113.4
    angle_coeff 870  35.0 125.0
    angle_coeff 871  35.0 130.7
    angle_coeff 872  35.0 130.7
    angle_coeff 873  70.0 110.0
    angle_coeff 874  35.0 121.6
    angle_coeff 875  70.0 121.6
    angle_coeff 876  70.0 121.6
    angle_coeff 877  85.0 120.0
    angle_coeff 878  35.0 120.0
    angle_coeff 879  70.0 118.9
    angle_coeff 880  35.0 120.0
    angle_coeff 881  70.0 108.7
    angle_coeff 882  35.0 130.7
    angle_coeff 883  70.0 106.3
    angle_coeff 884  70.0 108.0
    angle_coeff 885  70.0 111.0
    angle_coeff 886  70.0 130.7
    angle_coeff 887  70.0 120.0
    angle_coeff 888  70.0 120.0
    angle_coeff 889  70.0 120.0
    angle_coeff 890  70.0 121.6
    angle_coeff 891  70.0 121.6
    angle_coeff 892  35.0 132.1
    angle_coeff 893  70.0 107.7
    angle_coeff 894  70.0 110.6
    angle_coeff 895  70.0 111.0
    angle_coeff 896  70.0 111.9
    angle_coeff 897  70.0 132.1
    angle_coeff 898  70.0 132.1
    angle_coeff 899  70.0 132.1
    angle_coeff 900  85.0 120.0
    angle_coeff 901  35.0 120.0
    angle_coeff 902  70.0 121.6
    angle_coeff 903  35.0 130.7
    angle_coeff 904  70.0 106.3
    angle_coeff 905  70.0 130.7
    angle_coeff 906  63.0 120.0
    angle_coeff 907  70.0 124.0
    angle_coeff 908  63.0 120.0
    angle_coeff 909  63.0 120.0
    angle_coeff 910  63.0 120.0
    angle_coeff 911  63.0 120.0
    angle_coeff 912  70.0 124.0
    angle_coeff 913  63.0 120.0
    angle_coeff 914  63.0 120.0
    angle_coeff 915  35.0 120.0
    angle_coeff 916  35.0 126.8
    angle_coeff 917  70.0 128.6
    angle_coeff 918  35.0 125.7
    angle_coeff 919  35.0 126.8
    angle_coeff 920  70.0 103.8
    angle_coeff 921  70.0 110.4
    angle_coeff 922  70.0 125.0
    angle_coeff 923  70.0 125.0
    angle_coeff 924  70.0 130.0
    angle_coeff 925  85.0 106.4
    angle_coeff 926  70.0 125.7
    angle_coeff 927  35.0 127.5
    angle_coeff 928  70.0 107.3
    angle_coeff 929  70.0 107.3
    angle_coeff 930  70.0 127.5
    angle_coeff 931  70.0 103.8
    angle_coeff 932  35.0 128.6
    angle_coeff 933  35.0 118.9
    angle_coeff 934  70.0 118.9
    angle_coeff 935  70.0 118.9
    angle_coeff 936  70.0 111.9
    angle_coeff 937  80.0 134.0
    angle_coeff 938  70.0 91.0
    angle_coeff 939  80.0 134.0
    angle_coeff 940  55.0 127.0
    angle_coeff 941  50.0 94.0
    angle_coeff 942  50.0 126.0
    angle_coeff 943  35.0 108.0
    angle_coeff 944  35.0 114.3
    angle_coeff 945  35.0 114.3
    angle_coeff 946  35.0 114.3
    angle_coeff 947  37.5 108.0
    angle_coeff 948  35.0 109.5
    angle_coeff 949  37.5 110.0
    angle_coeff 950  70.0 117.0
    angle_coeff 951  35.0 111.0
    angle_coeff 952  55.0 109.0
    angle_coeff 953  30.0 79.2
    angle_coeff 954  37.5 117.2
    angle_coeff 955  37.5 117.2
    angle_coeff 956  37.5 117.2
    angle_coeff 957  37.5 126.0
    angle_coeff 958  55.0 128.0
    angle_coeff 959  63.0 85.0
    angle_coeff 960  63.0 114.0
    angle_coeff 961  80.0 89.0
    angle_coeff 962  172.8 120.0
    angle_coeff 963  144.0 120.0
    angle_coeff 964  35.0 109.5
    angle_coeff 965  43.6 106.4
    angle_coeff 966  50.0 112.5
    angle_coeff 967  50.0 120.5
    angle_coeff 968  80.0 117.5
    angle_coeff 969  80.0 117.5
    angle_coeff 970  80.0 125.0
    angle_coeff 971  10.0 109.5
    angle_coeff 972  10.0 109.5
    angle_coeff 973  45.0 109.5
    angle_coeff 974  70.0 117.6
    angle_coeff 975  70.0 117.6
    angle_coeff 976  35.0 119.2
    angle_coeff 977  35.0 119.2
    angle_coeff 978  70.0 121.2
    angle_coeff 979  70.0 121.6
    angle_coeff 980  70.0 117.6
    angle_coeff 981  70.0 121.2
    angle_coeff 982  30.0 125.8
    angle_coeff 983  70.0 125.8
    angle_coeff 984  70.0 125.8
    angle_coeff 985  70.0 125.8
    angle_coeff 986  70.0 125.8
    angle_coeff 987  30.0 128.8
    angle_coeff 988  70.0 105.4
    angle_coeff 989  70.0 128.8
    angle_coeff 990  70.0 128.8
    angle_coeff 991  70.0 128.8
    angle_coeff 992  70.0 128.8
    angle_coeff 993  20.0 109.5
    angle_coeff 994  20.0 109.5
    angle_coeff 995  50.0 118.0
    angle_coeff 996  50.0 121.9
    angle_coeff 997  35.0 110.5
    angle_coeff 998  60.0 110.0
    angle_coeff 999  60.0 100.0
    angle_coeff 1000  60.0 110.0
    angle_coeff 1001  35.0 110.5
    angle_coeff 1002  35.0 109.5
    angle_coeff 1003  35.0 110.5
    angle_coeff 1004  35.0 109.5
    angle_coeff 1005  35.0 110.5
    angle_coeff 1006  35.0 110.5
    angle_coeff 1007  35.0 110.5
    angle_coeff 1008  50.0 112.0
    angle_coeff 1009  35.0 123.3
    angle_coeff 1010  35.0 120.0
    angle_coeff 1011  70.0 124.0
    angle_coeff 1012  35.0 120.0
    angle_coeff 1013  70.0 124.0
    angle_coeff 1014  70.0 124.0
    angle_coeff 1015  85.0 117.0
    angle_coeff 1016  160.0 180.0
    angle_coeff 1017  160.0 180.0
    dihedral_coeff 1  -2.5 1.25 3.1 0.0
    dihedral_coeff 2  -2.5 1.25 3.1 0.0
    dihedral_coeff 3  -2.0 0.7 3.0 0.0
    dihedral_coeff 4  -2.0 0.7 3.0 0.0
    dihedral_coeff 5  -3.4 1.25 3.1 0.0
    dihedral_coeff 6  -3.4 1.25 3.1 0.0
    dihedral_coeff 7  -3.4 1.25 3.1 0.0
    dihedral_coeff 8  -3.4 1.25 3.1 0.0
    dihedral_coeff 9  -2.0 0.5 3.25 0.0
    dihedral_coeff 10  -3.4 1.25 3.1 0.0
    dihedral_coeff 11  -2.0 0.5 3.25 0.0
    dihedral_coeff 12  -3.4 1.25 3.1 0.0
    dihedral_coeff 13  0.3 0.0 1.3 0.0
    dihedral_coeff 14  0.3 0.0 1.3 0.0
    dihedral_coeff 15  0.3 0.0 1.3 0.0
    dihedral_coeff 16  -2.5 1.25 3.1 0.0
    dihedral_coeff 17  -3.4 1.25 3.1 0.0
    dihedral_coeff 18  -3.4 1.25 3.1 0.0
    dihedral_coeff 19  -7.4 3.0 1.8 0.0
    dihedral_coeff 20  -8.4 3.0 1.8 0.0
    dihedral_coeff 21  1.6 3.2 0.0 0.0
    dihedral_coeff 22  0.0 0.5 0.0 0.0
    dihedral_coeff 23  0.0 0.0 0.0 0.0
    dihedral_coeff 24  0.0 0.0 0.0 0.0
    dihedral_coeff 25  0.7 -1.5 0.0 0.0
    dihedral_coeff 26  -0.5 0.2 0.0 0.0
    dihedral_coeff 27  0.8 -0.76 0.0 0.0
    dihedral_coeff 28  -0.9 0.3 0.0 0.0
    dihedral_coeff 29  0.0 0.0 0.3 0.0
    dihedral_coeff 30  3.0 5.5 0.0 0.0
    dihedral_coeff 31  0.0 5.0 0.0 0.0
    dihedral_coeff 32  1.5 5.5 0.0 0.0
    dihedral_coeff 33  -2.0 5.0 0.0 0.0
    dihedral_coeff 34  1.5 5.5 0.0 0.0
    dihedral_coeff 35  4.0 5.0 0.0 0.0
    dihedral_coeff 36  0.0 0.0 0.0 0.0
    dihedral_coeff 37  0.0 0.0 0.36 0.0
    dihedral_coeff 38  0.0 0.0 0.085 0.0
    dihedral_coeff 39  0.0 0.0 0.0 0.0
    dihedral_coeff 40  0.0 0.0 0.0 0.0
    dihedral_coeff 41  -0.65 0.0 0.0 0.0
    dihedral_coeff 42  0.0 0.82 0.0 0.0
    dihedral_coeff 43  0.0 0.0 0.0 0.0
    dihedral_coeff 44  0.0 0.0 0.0 0.0
    dihedral_coeff 45  0.0 0.546 0.0 0.0
    dihedral_coeff 46  0.0 1.412 0.0 0.0
    dihedral_coeff 47  5.26 0.82 0.0 0.0
    dihedral_coeff 48  0.0 0.0 0.0 0.0
    dihedral_coeff 49  1.454 -0.144 -0.775 0.0
    dihedral_coeff 50  0.0 0.0 0.275 0.0
    dihedral_coeff 51  0.0 0.0 -0.553 0.0
    dihedral_coeff 52  0.0 0.0 0.132 0.0
    dihedral_coeff 53  0.0 0.0 0.0 0.0
    dihedral_coeff 54  0.0 0.0 0.36 0.0
    dihedral_coeff 55  1.173 0.189 -1.2 0.0
    dihedral_coeff 56  0.65 0.0 0.0 0.0
    dihedral_coeff 57  1.816 1.222 1.581 0.0
    dihedral_coeff 58  0.0 0.0 0.0 0.0
    dihedral_coeff 59  0.0 0.0 0.0 0.0
    dihedral_coeff 60  0.0 0.0 0.36 0.0
    dihedral_coeff 61  0.0 0.0 0.275 0.0
    dihedral_coeff 62  0.0 0.82 0.0 0.0
    dihedral_coeff 63  0.0 0.82 0.0 0.0
    dihedral_coeff 64  0.0 0.0 0.0 0.0
    dihedral_coeff 65  0.0 0.0 0.0 0.0
    dihedral_coeff 66  0.0 0.0 0.36 0.0
    dihedral_coeff 67  0.0 0.0 0.0 0.0
    dihedral_coeff 68  0.0 5.124 0.0 0.0
    dihedral_coeff 69  0.0 5.0 0.0 0.0
    dihedral_coeff 70  4.669 5.124 0.0 0.0
    dihedral_coeff 71  1.5 5.0 0.0 0.0
    dihedral_coeff 72  -2.0 5.0 0.0 0.0
    dihedral_coeff 73  4.669 5.124 0.0 0.0
    dihedral_coeff 74  4.0 5.0 0.0 0.0
    dihedral_coeff 75  0.4 4.9 0.0 0.0
    dihedral_coeff 76  0.0 4.9 0.0 0.0
    dihedral_coeff 77  0.0 6.603 0.0 0.0
    dihedral_coeff 78  0.0 6.089 0.0 0.0
    dihedral_coeff 79  0.0 4.9 0.0 0.0
    dihedral_coeff 80  0.0 6.089 0.0 0.0
    dihedral_coeff 81  0.0 6.089 0.0 0.0
    dihedral_coeff 82  0.0 6.089 0.0 0.0
    dihedral_coeff 83  2.3 6.089 0.0 0.0
    dihedral_coeff 84  0.0 4.9 0.0 0.0
    dihedral_coeff 85  4.542 6.603 1.045 0.0
    dihedral_coeff 86  2.3 6.089 0.0 0.0
    dihedral_coeff 87  0.0 4.9 0.0 0.0
    dihedral_coeff 88  2.3 6.089 0.0 0.0
    dihedral_coeff 89  2.3 6.089 0.0 0.0
    dihedral_coeff 90  0.0 4.9 0.0 0.0
    dihedral_coeff 91  2.3 6.089 0.0 0.0
    dihedral_coeff 92  4.6 0.0 0.0 0.0
    dihedral_coeff 93  0.0 4.9 0.0 0.0
    dihedral_coeff 94  2.3 6.089 0.0 0.0
    dihedral_coeff 95  0.0 4.9 0.0 0.0
    dihedral_coeff 96  0.0 4.9 0.0 0.0
    dihedral_coeff 97  0.0 4.9 0.0 0.0
    dihedral_coeff 98  2.3 6.089 0.0 0.0
    dihedral_coeff 99  2.3 6.089 0.0 0.0
    dihedral_coeff 100  2.3 6.089 0.0 0.0
    dihedral_coeff 101  2.3 6.089 0.0 0.0
    dihedral_coeff 102  2.3 6.089 0.0 0.0
    dihedral_coeff 103  2.3 6.089 0.0 0.0
    dihedral_coeff 104  0.0 4.9 0.0 0.0
    dihedral_coeff 105  2.3 6.089 0.0 0.0
    dihedral_coeff 106  2.3 6.089 0.0 0.0
    dihedral_coeff 107  2.3 6.089 0.0 0.0
    dihedral_coeff 108  0.9 0.23 -0.505 0.0
    dihedral_coeff 109  0.0 0.0 0.0 0.0
    dihedral_coeff 110  2.5 6.0 0.0 0.0
    dihedral_coeff 111  3.2 -3.0 0.0 0.0
    dihedral_coeff 112  0.0 0.0 0.0 0.0
    dihedral_coeff 113  2.0 0.0 0.0 0.0
    dihedral_coeff 114  0.0 0.0 0.0 0.0
    dihedral_coeff 115  2.0 0.0 0.0 0.0
    dihedral_coeff 116  0.0 2.1 0.0 0.0
    dihedral_coeff 117  0.0 2.1 0.0 0.0
    dihedral_coeff 118  0.0 0.2 0.0 0.0
    dihedral_coeff 119  0.0 2.1 0.0 0.0
    dihedral_coeff 120  0.0 1.1 0.0 0.0
    dihedral_coeff 121  0.0 0.2 0.0 0.0
    dihedral_coeff 122  0.9 0.23 -0.505 0.0
    dihedral_coeff 123  2.5 6.0 0.0 0.0
    dihedral_coeff 124  3.2 -3.0 0.0 0.0
    dihedral_coeff 125  0.8 -3.0 0.0 0.0
    dihedral_coeff 126  0.0 14.0 0.0 0.0
    dihedral_coeff 127  0.0 14.0 0.0 0.0
    dihedral_coeff 128  0.0 14.0 0.0 0.0
    dihedral_coeff 129  0.0 14.0 0.0 0.0
    dihedral_coeff 130  0.0 7.0 0.0 0.0
    dihedral_coeff 131  0.0 7.0 0.0 0.0
    dihedral_coeff 132  0.0 0.0 0.0 0.0
    dihedral_coeff 133  2.0 1.0 0.0 0.0
    dihedral_coeff 134  0.0 1.0 0.0 0.0
    dihedral_coeff 135  -2.0 1.0 0.0 0.0
    dihedral_coeff 136  0.0 1.0 0.0 0.0
    dihedral_coeff 137  -0.75 1.5 0.0 0.0
    dihedral_coeff 138  0.75 1.5 0.0 0.0
    dihedral_coeff 139  0.0 1.5 0.0 0.0
    dihedral_coeff 140  0.0 1.5 0.0 0.0
    dihedral_coeff 141  0.0 2.17 0.0 0.0
    dihedral_coeff 142  0.0 7.25 0.0 0.0
    dihedral_coeff 143  0.0 2.1 0.0 0.0
    dihedral_coeff 144  0.0 2.1 0.0 0.0
    dihedral_coeff 145  0.0 1.1 0.0 0.0
    dihedral_coeff 146  0.0 1.1 0.0 0.0
    dihedral_coeff 147  0.0 4.9 0.0 0.0
    dihedral_coeff 148  0.0 4.9 0.0 0.0
    dihedral_coeff 149  2.5 6.0 0.0 0.0
    dihedral_coeff 150  3.2 -3.0 0.0 0.0
    dihedral_coeff 151  0.0 0.0 0.0 0.0
    dihedral_coeff 152  0.3 0.0 0.5 0.0
    dihedral_coeff 153  0.3 0.0 0.5 0.0
    dihedral_coeff 154  0.0 0.0 0.2 0.0
    dihedral_coeff 155  0.0 0.0 0.2 0.0
    dihedral_coeff 156  -0.356 -0.174 0.492 0.0
    dihedral_coeff 157  0.0 0.0 0.352 0.0
    dihedral_coeff 158  -0.9 0.0 0.0 0.0
    dihedral_coeff 159  -0.9 0.0 0.0 0.0
    dihedral_coeff 160  -0.9 0.0 0.0 0.0
    dihedral_coeff 161  0.0 0.0 0.3 0.0
    dihedral_coeff 162  0.0 0.0 0.3 0.0
    dihedral_coeff 163  5.519 -6.7 0.581 0.0
    dihedral_coeff 164  2.722 -5.154 0.0 0.0
    dihedral_coeff 165  0.0 1.682 0.0 0.0
    dihedral_coeff 166  0.0 1.682 0.0 0.0
    dihedral_coeff 167  -1.257 -1.806 0.003 0.0
    dihedral_coeff 168  3.0 3.0 0.0 0.0
    dihedral_coeff 169  0.0 0.0 0.0 0.0
    dihedral_coeff 170  0.0 0.0 0.0 0.0
    dihedral_coeff 171  -0.75 0.0 0.0 0.0
    dihedral_coeff 172  0.75 0.0 0.0 0.0
    dihedral_coeff 173  2.0 0.0 0.0 0.0
    dihedral_coeff 174  -4.344 -1.714 0.0 0.0
    dihedral_coeff 175  1.711 -0.5 0.663 0.0
    dihedral_coeff 176  1.428 0.086 0.029 0.0
    dihedral_coeff 177  -2.5 0.0 0.25 0.0
    dihedral_coeff 178  0.0 0.0 0.54 0.0
    dihedral_coeff 179  0.3 -0.4 0.4 0.0
    dihedral_coeff 180  0.0 0.0 0.4 0.0
    dihedral_coeff 181  -0.55 0.0 1.0 0.0
    dihedral_coeff 182  -6.18 0.0 0.0 0.0
    dihedral_coeff 183  -2.06 -0.313 0.315 0.0
    dihedral_coeff 184  -4.344 -1.714 0.0 0.0
    dihedral_coeff 185  -4.344 -1.714 0.0 0.0
    dihedral_coeff 186  -9.0 2.0 0.8 0.0
    dihedral_coeff 187  0.0 0.0 -0.1 0.0
    dihedral_coeff 188  -1.697 -0.456 0.585 0.0
    dihedral_coeff 189  -1.697 -0.456 0.585 0.0
    dihedral_coeff 190  9.508 0.0 0.0 0.0
    dihedral_coeff 191  -1.552 0.0 0.0 0.0
    dihedral_coeff 192  4.319 0.0 0.0 0.0
    dihedral_coeff 193  8.0 0.0 0.0 0.0
    dihedral_coeff 194  6.28 -1.467 2.03 0.0
    dihedral_coeff 195  0.0 0.0 0.468 0.0
    dihedral_coeff 196  1.3 -0.05 0.2 0.0
    dihedral_coeff 197  1.262 -0.198 0.465 0.0
    dihedral_coeff 198  2.619 -0.62 0.258 0.0
    dihedral_coeff 199  0.0 -0.65 0.0 0.0
    dihedral_coeff 200  0.0 0.0 0.4 0.0
    dihedral_coeff 201  2.392 -0.674 0.55 0.0
    dihedral_coeff 202  0.845 -0.962 0.713 0.0
    dihedral_coeff 203  0.0 0.0 0.3 0.0
    dihedral_coeff 204  1.3 -0.05 0.2 0.0
    dihedral_coeff 205  2.732 -0.229 0.485 0.0
    dihedral_coeff 206  0.0 0.0 0.4 0.0
    dihedral_coeff 207  0.0 0.0 0.4 0.0
    dihedral_coeff 208  1.262 -0.198 0.465 0.0
    dihedral_coeff 209  1.964 0.0 0.659 0.0
    dihedral_coeff 210  0.0 0.0 0.0 0.0
    dihedral_coeff 211  0.0 0.0 0.452 0.0
    dihedral_coeff 212  0.0 0.0 0.452 0.0
    dihedral_coeff 213  0.0 0.0 0.366 0.0
    dihedral_coeff 214  -0.55 0.0 0.0 0.0
    dihedral_coeff 215  0.0 0.0 0.468 0.0
    dihedral_coeff 216  -0.25 0.0 0.0 0.0
    dihedral_coeff 217  2.0 0.0 0.0 0.0
    dihedral_coeff 218  0.0 0.0 0.4 0.0
    dihedral_coeff 219  11.035 -0.968 0.27 0.0
    dihedral_coeff 220  -1.013 -0.709 0.473 0.0
    dihedral_coeff 221  -0.8 0.0 0.0 0.0
    dihedral_coeff 222  0.0 0.0 0.464 0.0
    dihedral_coeff 223  0.845 -0.962 0.713 0.0
    dihedral_coeff 224  0.845 -0.962 0.713 0.0
    dihedral_coeff 225  0.0 0.0 0.3 0.0
    dihedral_coeff 226  0.0 0.0 0.366 0.0
    dihedral_coeff 227  0.0 0.0 0.462 0.0
    dihedral_coeff 228  0.0 0.0 0.3 0.0
    dihedral_coeff 229  0.0 0.0 0.384 0.0
    dihedral_coeff 230  0.0 0.0 -0.582 0.0
    dihedral_coeff 231  0.0 0.0 0.462 0.0
    dihedral_coeff 232  0.0 0.0 0.462 0.0
    dihedral_coeff 233  0.0 0.0 0.4 0.0
    dihedral_coeff 234  0.0 0.0 0.4 0.0
    dihedral_coeff 235  0.0 0.0 0.452 0.0
    dihedral_coeff 236  0.0 0.0 0.462 0.0
    dihedral_coeff 237  0.0 0.0 0.462 0.0
    dihedral_coeff 238  0.0 0.0 0.462 0.0
    dihedral_coeff 239  0.0 0.0 0.462 0.0
    dihedral_coeff 240  0.0 0.0 0.462 0.0
    dihedral_coeff 241  0.0 0.0 0.462 0.0
    dihedral_coeff 242  0.0 0.0 -0.225 0.0
    dihedral_coeff 243  0.0 0.0 0.3 0.0
    dihedral_coeff 244  0.0 0.0 0.464 0.0
    dihedral_coeff 245  0.0 0.0 0.45 0.0
    dihedral_coeff 246  0.0 0.0 0.366 0.0
    dihedral_coeff 247  1.0 0.0 0.0 0.0
    dihedral_coeff 248  5.2 -0.5 0.0 0.0
    dihedral_coeff 249  -0.759 -0.282 0.68 0.0
    dihedral_coeff 250  0.0 0.0 0.48 0.0
    dihedral_coeff 251  0.925 -0.576 0.677 0.0
    dihedral_coeff 252  1.941 -0.836 0.935 0.0
    dihedral_coeff 253  0.0 0.0 0.647 0.0
    dihedral_coeff 254  0.0 0.0 0.558 0.0
    dihedral_coeff 255  0.0 0.0 0.647 0.0
    dihedral_coeff 256  0.0 0.0 0.0 0.0
    dihedral_coeff 257  0.0 0.0 0.0 0.0
    dihedral_coeff 258  0.0 0.0 0.0 0.0
    dihedral_coeff 259  0.0 0.0 0.0 0.0
    dihedral_coeff 260  0.0 0.0 0.0 0.0
    dihedral_coeff 261  0.0 0.0 0.0 0.0
    dihedral_coeff 262  -0.521 -2.018 1.996 0.0
    dihedral_coeff 263  -0.5 -1.5 1.0 0.0
    dihedral_coeff 264  -0.5 -1.5 1.0 0.0
    dihedral_coeff 265  -1.22 -0.126 0.422 0.0
    dihedral_coeff 266  0.65 -0.25 0.67 0.0
    dihedral_coeff 267  -1.42 -0.62 0.1 0.0
    dihedral_coeff 268  0.0 0.0 0.76 0.0
    dihedral_coeff 269  0.0 0.0 0.198 0.0
    dihedral_coeff 270  0.0 0.0 0.76 0.0
    dihedral_coeff 271  0.0 0.0 0.76 0.0
    dihedral_coeff 272  0.0 0.0 0.76 0.0
    dihedral_coeff 273  0.0 0.0 0.3 0.0
    dihedral_coeff 274  0.0 0.0 0.0 0.0
    dihedral_coeff 275  -2.365 0.912 -0.85 0.0
    dihedral_coeff 276  -1.737 1.251 -3.501 0.0
    dihedral_coeff 277  0.0 0.0 0.0 0.0
    dihedral_coeff 278  0.0 0.462 0.0 0.0
    dihedral_coeff 279  4.753 -0.734 0.0 0.0
    dihedral_coeff 280  0.0 0.0 0.0 0.0
    dihedral_coeff 281  0.0 0.0 0.0 0.0
    dihedral_coeff 282  2.929 -2.533 0.497 0.0
    dihedral_coeff 283  2.3 6.089 0.0 0.0
    dihedral_coeff 284  0.0 0.0 0.0 0.0
    dihedral_coeff 285  0.0 0.0 0.0 0.0
    dihedral_coeff 286  0.0 0.0 0.0 0.0
    dihedral_coeff 287  0.0 0.0 0.0 0.0
    dihedral_coeff 288  1.362 -1.457 0.149 0.0
    dihedral_coeff 289  0.0 0.0 0.0 0.0
    dihedral_coeff 290  0.416 -0.128 0.695 0.0
    dihedral_coeff 291  -0.19 -0.417 0.418 0.0
    dihedral_coeff 292  0.0 0.0 0.56 0.0
    dihedral_coeff 293  0.0 0.0 0.4 0.0
    dihedral_coeff 294  0.0 0.0 0.56 0.0
    dihedral_coeff 295  1.711 -0.5 0.663 0.0
    dihedral_coeff 296  0.0 0.0 0.468 0.0
    dihedral_coeff 297  0.5 0.0 0.0 0.0
    dihedral_coeff 298  0.5 0.0 0.0 0.0
    dihedral_coeff 299  0.5 0.0 0.0 0.0
    dihedral_coeff 300  2.817 -0.169 0.543 0.0
    dihedral_coeff 301  0.346 0.405 -0.904 0.0
    dihedral_coeff 302  0.346 0.405 -0.904 0.0
    dihedral_coeff 303  0.0 0.0 0.3 0.0
    dihedral_coeff 304  0.0 0.0 0.318 0.0
    dihedral_coeff 305  0.0 0.0 -0.372 0.0
    dihedral_coeff 306  0.0 0.0 -0.372 0.0
    dihedral_coeff 307  0.0 0.0 -0.25 0.0
    dihedral_coeff 308  0.0 -8.0 0.0 0.0
    dihedral_coeff 309  0.0 -8.0 0.0 0.0
    dihedral_coeff 310  0.0 0.0 0.0 0.0
    dihedral_coeff 311  0.0 0.45 0.0 0.0
    dihedral_coeff 312  0.0 0.0 0.0 0.0
    dihedral_coeff 313  -0.5 0.5 -0.5 0.0
    dihedral_coeff 314  0.0 -0.4 0.0 0.0
    dihedral_coeff 315  0.0 0.0 0.0 0.0
    dihedral_coeff 316  0.0 0.0 0.0 0.0
    dihedral_coeff 317  0.0 0.0 0.4 0.0
    dihedral_coeff 318  0.5 0.0 0.0 0.0
    dihedral_coeff 319  0.346 0.405 -0.904 0.0
    dihedral_coeff 320  0.0 0.0 -0.372 0.0
    dihedral_coeff 321  0.0 0.0 -0.372 0.0
    dihedral_coeff 322  0.0 0.0 -0.372 0.0
    dihedral_coeff 323  1.711 -0.5 0.663 0.0
    dihedral_coeff 324  0.0 0.0 0.3 0.0
    dihedral_coeff 325  0.0 0.0 0.468 0.0
    dihedral_coeff 326  1.438 -0.124 0.264 0.0
    dihedral_coeff 327  0.0 0.0 0.347 0.0
    dihedral_coeff 328  0.0 0.0 0.302 0.0
    dihedral_coeff 329  0.0 0.0 0.261 0.0
    dihedral_coeff 330  0.0 0.0 0.462 0.0
    dihedral_coeff 331  0.0 0.0 0.3 0.0
    dihedral_coeff 332  -0.19 -0.417 0.418 0.0
    dihedral_coeff 333  1.829 0.243 -0.498 0.0
    dihedral_coeff 334  -0.19 -0.417 0.418 0.0
    dihedral_coeff 335  0.0 0.0 0.0 0.0
    dihedral_coeff 336  0.0 0.0 0.0 0.0
    dihedral_coeff 337  0.0 0.0 0.177 0.0
    dihedral_coeff 338  0.0 0.0 0.0 0.0
    dihedral_coeff 339  0.0 0.0 0.0 0.0
    dihedral_coeff 340  1.0 -0.35 0.0 0.0
    dihedral_coeff 341  2.756 -0.872 -3.68 0.0
    dihedral_coeff 342  -1.0 -0.35 0.0 0.0
    dihedral_coeff 343  1.5 -1.5 0.0 0.0
    dihedral_coeff 344  -1.5 -1.5 0.0 0.0
    dihedral_coeff 345  -1.5 -1.5 0.0 0.0
    dihedral_coeff 346  0.0 0.0 0.0 0.0
    dihedral_coeff 347  0.0 0.5 -0.5 0.0
    dihedral_coeff 348  0.0 0.0 0.0 0.0
    dihedral_coeff 349  0.0 0.0 0.0 0.0
    dihedral_coeff 350  0.0 0.0 0.0 0.0
    dihedral_coeff 351  0.0 0.0 0.25 0.0
    dihedral_coeff 352  0.0 0.0 0.25 0.0
    dihedral_coeff 353  2.25 0.0 0.0 0.0
    dihedral_coeff 354  0.0 0.0 0.0 0.0
    dihedral_coeff 355  0.0 0.0 0.0 0.0
    dihedral_coeff 356  0.0 0.0 0.0 0.0
    dihedral_coeff 357  0.0 0.0 0.0 0.0
    dihedral_coeff 358  0.0 0.0 0.0 0.0
    dihedral_coeff 359  0.0 0.0 0.35 0.0
    dihedral_coeff 360  0.0 0.0 0.35 0.0
    dihedral_coeff 361  0.0 0.0 0.35 0.0
    dihedral_coeff 362  0.0 0.0 0.35 0.0
    dihedral_coeff 363  0.0 0.0 0.0 0.0
    dihedral_coeff 364  0.0 0.0 0.0 0.0
    dihedral_coeff 365  -0.714 0.0 0.0 0.0
    dihedral_coeff 366  0.0 0.0 0.0 0.0
    dihedral_coeff 367  0.0 0.0 0.0 0.0
    dihedral_coeff 368  0.0 0.0 -0.48 0.0
    dihedral_coeff 369  0.0 0.0 0.0 0.0
    dihedral_coeff 370  0.0 0.0 0.0 0.0
    dihedral_coeff 371  0.0 0.0 0.0 0.0
    dihedral_coeff 372  0.0 0.0 0.0 0.0
    dihedral_coeff 373  0.0 0.45 0.0 0.0
    dihedral_coeff 374  0.0 0.0 0.0 0.0
    dihedral_coeff 375  1.7 -0.6 0.0 0.0
    dihedral_coeff 376  0.0 -0.4 0.0 0.0
    dihedral_coeff 377  0.0 0.0 0.0 0.0
    dihedral_coeff 378  0.0 0.45 0.0 0.0
    dihedral_coeff 379  0.0 0.0 0.0 0.0
    dihedral_coeff 380  0.0 -0.4 0.0 0.0
    dihedral_coeff 381  0.0 0.0 0.0 0.0
    dihedral_coeff 382  0.0 0.0 0.0 0.0
    dihedral_coeff 383  0.0 0.0 0.0 0.0
    dihedral_coeff 384  0.0 0.0 0.0 0.0
    dihedral_coeff 385  0.0 0.0 0.0 0.0
    dihedral_coeff 386  0.0 0.0 0.3 0.0
    dihedral_coeff 387  0.0 -1.0 0.0 0.0
    dihedral_coeff 388  0.0 -1.0 0.0 0.0
    dihedral_coeff 389  0.0 0.4 0.0 0.0
    dihedral_coeff 390  0.0 0.0 0.0 0.0
    dihedral_coeff 391  1.0 -0.5 0.5 0.0
    dihedral_coeff 392  0.0 0.0 0.3 0.0
    dihedral_coeff 393  0.0 0.0 0.0 0.0
    dihedral_coeff 394  1.0 -0.35 0.0 0.0
    dihedral_coeff 395  -1.0 -0.35 0.0 0.0
    dihedral_coeff 396  -1.0 -0.35 0.0 0.0
    dihedral_coeff 397  1.5 -1.5 0.0 0.0
    dihedral_coeff 398  3.132 -1.491 2.744 0.0
    dihedral_coeff 399  -1.5 -1.5 0.0 0.0
    dihedral_coeff 400  -1.737 1.251 -3.501 0.0
    dihedral_coeff 401  -1.396 -0.427 0.0 0.0
    dihedral_coeff 402  4.753 -0.734 0.0 0.0
    dihedral_coeff 403  0.0 0.0 -0.139 0.0
    dihedral_coeff 404  0.0 0.0 0.0 0.0
    dihedral_coeff 405  0.0 0.0 0.0 0.0
    dihedral_coeff 406  1.0 0.0 0.0 0.0
    dihedral_coeff 407  0.0 0.0 0.26 0.0
    dihedral_coeff 408  0.0 0.0 0.18 0.0
    dihedral_coeff 409  0.0 0.0 0.0 0.0
    dihedral_coeff 410  0.0 0.0 0.18 0.0
    dihedral_coeff 411  0.346 0.405 -0.904 0.0
    dihedral_coeff 412  0.0 0.0 0.3 0.0
    dihedral_coeff 413  0.0 0.0 0.318 0.0
    dihedral_coeff 414  0.0 0.0 -0.372 0.0
    dihedral_coeff 415  0.0 1.1 0.0 0.0
    dihedral_coeff 416  0.0 1.1 0.0 0.0
    dihedral_coeff 417  0.0 -7.414 1.705 0.0
    dihedral_coeff 418  0.0 0.6 0.0 0.0
    dihedral_coeff 419  1.6 5.1 0.0 0.0
    dihedral_coeff 420  0.0 4.8 0.0 0.0
    dihedral_coeff 421  0.0 7.25 0.0 0.0
    dihedral_coeff 422  0.0 7.25 0.0 0.0
    dihedral_coeff 423  0.0 7.25 0.0 0.0
    dihedral_coeff 424  0.0 7.25 0.0 0.0
    dihedral_coeff 425  0.0 7.25 0.0 0.0
    dihedral_coeff 426  0.0 0.0 0.0 0.0
    dihedral_coeff 427  0.0 0.0 0.0 0.0
    dihedral_coeff 428  0.0 0.0 0.0 0.0
    dihedral_coeff 429  0.0 0.0 0.0 0.0
    dihedral_coeff 430  0.0 0.0 0.0 0.0
    dihedral_coeff 431  0.0 0.0 0.0 0.0
    dihedral_coeff 432  0.0 0.0 0.0 0.0
    dihedral_coeff 433  0.0 0.0 0.0 0.0
    dihedral_coeff 434  0.0 0.0 0.0 0.0
    dihedral_coeff 435  0.0 0.0 0.0 0.0
    dihedral_coeff 436  0.0 0.0 0.0 0.0
    dihedral_coeff 437  0.0 0.0 0.0 0.0
    dihedral_coeff 438  0.0 0.0 0.0 0.0
    dihedral_coeff 439  0.0 0.0 0.0 0.0
    dihedral_coeff 440  0.0 0.0 0.0 0.0
    dihedral_coeff 441  0.0 0.0 0.3 0.0
    dihedral_coeff 442  0.0 0.0 0.3 0.0
    dihedral_coeff 443  0.65 -0.25 0.67 0.0
    dihedral_coeff 444  0.0 0.0 0.76 0.0
    dihedral_coeff 445  -3.5 3.0 0.0 0.0
    dihedral_coeff 446  -3.5 3.0 0.0 0.0
    dihedral_coeff 447  0.0 2.5 0.0 0.0
    dihedral_coeff 448  0.0 3.0 0.0 0.0
    dihedral_coeff 449  0.4 5.5 0.0 0.0
    dihedral_coeff 450  0.0 2.99 0.0 0.0
    dihedral_coeff 451  -0.375 -1.358 0.004 0.0
    dihedral_coeff 452  0.65 -0.25 0.67 0.0
    dihedral_coeff 453  -0.375 -1.358 0.004 0.0
    dihedral_coeff 454  0.0 0.0 0.76 0.0
    dihedral_coeff 455  3.0 3.0 0.0 0.0
    dihedral_coeff 456  0.0 5.2 0.0 0.0
    dihedral_coeff 457  0.0 0.0 0.562 0.0
    dihedral_coeff 458  3.5 -3.3 1.5 0.0
    dihedral_coeff 459  0.0 0.0 0.0 0.0
    dihedral_coeff 460  0.0 0.0 0.0 0.0
    dihedral_coeff 461  0.0 7.25 0.0 0.0
    dihedral_coeff 462  0.0 7.25 0.0 0.0
    dihedral_coeff 463  0.0 7.25 0.0 0.0
    dihedral_coeff 464  0.0 7.25 0.0 0.0
    dihedral_coeff 465  0.0 0.0 0.0 0.0
    dihedral_coeff 466  0.0 0.0 0.0 0.0
    dihedral_coeff 467  0.0 2.1 0.0 0.0
    dihedral_coeff 468  0.0 2.1 0.0 0.0
    dihedral_coeff 469  0.0 2.1 0.0 0.0
    dihedral_coeff 470  0.0 2.1 0.0 0.0
    dihedral_coeff 471  0.0 2.1 0.0 0.0
    dihedral_coeff 472  0.0 2.1 0.0 0.0
    dihedral_coeff 473  0.0 2.1 0.0 0.0
    dihedral_coeff 474  0.0 7.25 0.0 0.0
    dihedral_coeff 475  0.0 7.25 0.0 0.0
    dihedral_coeff 476  0.0 7.25 0.0 0.0
    dihedral_coeff 477  0.0 7.25 0.0 0.0
    dihedral_coeff 478  0.0 0.0 0.0 0.0
    dihedral_coeff 479  2.074 -2.966 2.473 0.0
    dihedral_coeff 480  1.671 -4.901 0.669 0.0
    dihedral_coeff 481  0.0 2.1 0.0 0.0
    dihedral_coeff 482  0.0 2.1 0.0 0.0
    dihedral_coeff 483  0.0 2.1 0.0 0.0
    dihedral_coeff 484  0.0 2.1 0.0 0.0
    dihedral_coeff 485  0.0 2.1 0.0 0.0
    dihedral_coeff 486  0.0 2.1 0.0 0.0
    dihedral_coeff 487  0.0 2.1 0.0 0.0
    dihedral_coeff 488  0.0 2.17 0.0 0.0
    dihedral_coeff 489  0.0 3.0 0.0 0.0
    dihedral_coeff 490  0.0 2.1 0.0 0.0
    dihedral_coeff 491  0.0 2.1 0.0 0.0
    dihedral_coeff 492  0.0 2.1 0.0 0.0
    dihedral_coeff 493  0.0 2.1 0.0 0.0
    dihedral_coeff 494  0.0 2.17 0.0 0.0
    dihedral_coeff 495  0.0 2.17 0.0 0.0
    dihedral_coeff 496  0.0 7.25 0.0 0.0
    dihedral_coeff 497  0.0 2.17 0.0 0.0
    dihedral_coeff 498  0.0 2.17 0.0 0.0
    dihedral_coeff 499  0.0 2.17 0.0 0.0
    dihedral_coeff 500  0.0 2.17 0.0 0.0
    dihedral_coeff 501  0.0 0.0 0.0 0.0
    dihedral_coeff 502  -1.396 -0.427 0.0 0.0
    dihedral_coeff 503  -1.396 -0.427 0.0 0.0
    dihedral_coeff 504  0.0 0.0 0.0 0.0
    dihedral_coeff 505  0.0 0.0 0.0 0.0
    dihedral_coeff 506  0.0 0.0 0.0 0.0
    dihedral_coeff 507  0.0 0.0 0.0 0.0
    dihedral_coeff 508  0.0 0.0 0.3 0.0
    dihedral_coeff 509  0.0 0.0 0.3 0.0
    dihedral_coeff 510  0.0 0.0 0.3 0.0
    dihedral_coeff 511  -7.582 3.431 3.198 0.0
    dihedral_coeff 512  0.0 2.03 0.0 0.0
    dihedral_coeff 513  0.0 2.1 0.0 0.0
    dihedral_coeff 514  0.0 2.1 0.0 0.0
    dihedral_coeff 515  0.0 2.1 0.0 0.0
    dihedral_coeff 516  0.0 2.1 0.0 0.0
    dihedral_coeff 517  0.0 2.1 0.0 0.0
    dihedral_coeff 518  0.0 2.1 0.0 0.0
    dihedral_coeff 519  0.0 2.1 0.0 0.0
    dihedral_coeff 520  0.0 -8.0 0.0 0.0
    dihedral_coeff 521  0.0 -8.0 0.0 0.0
    dihedral_coeff 522  0.0 14.0 0.0 0.0
    dihedral_coeff 523  0.0 14.0 0.0 0.0
    dihedral_coeff 524  0.0 14.0 0.0 0.0
    dihedral_coeff 525  0.0 14.0 0.0 0.0
    dihedral_coeff 526  0.0 14.0 0.0 0.0
    dihedral_coeff 527  0.0 14.0 0.0 0.0
    dihedral_coeff 528  0.0 14.0 0.0 0.0
    dihedral_coeff 529  0.0 14.0 0.0 0.0
    dihedral_coeff 530  0.0 14.0 0.0 0.0
    dihedral_coeff 531  0.0 14.0 0.0 0.0
    dihedral_coeff 532  0.0 14.0 0.0 0.0
    dihedral_coeff 533  0.0 14.0 0.0 0.0
    dihedral_coeff 534  -1.6 14.0 0.0 0.0
    dihedral_coeff 535  0.0 14.0 0.0 0.0
    dihedral_coeff 536  0.0 14.0 0.0 0.0
    dihedral_coeff 537  0.0 14.0 0.0 0.0
    dihedral_coeff 538  0.205 -0.531 0.0 0.0
    dihedral_coeff 539  0.0 0.0 -0.372 0.0
    dihedral_coeff 540  0.0 0.0 -0.372 0.0
    dihedral_coeff 541  1.241 3.353 -0.286 0.0
    dihedral_coeff 542  0.0 14.0 0.0 0.0
    dihedral_coeff 543  0.0 14.0 0.0 0.0
    dihedral_coeff 544  0.0 14.0 0.0 0.0
    dihedral_coeff 545  0.0 14.0 0.0 0.0
    dihedral_coeff 546  0.0 14.0 0.0 0.0
    dihedral_coeff 547  0.0 14.0 0.0 0.0
    dihedral_coeff 548  0.0 14.0 0.0 0.0
    dihedral_coeff 549  0.0 14.0 0.0 0.0
    dihedral_coeff 550  0.0 14.0 0.0 0.0
    dihedral_coeff 551  0.0 14.0 0.0 0.0
    dihedral_coeff 552  0.0 14.0 0.0 0.0
    dihedral_coeff 553  0.0 2.17 0.0 0.0
    dihedral_coeff 554  0.0 2.17 0.0 0.0
    dihedral_coeff 555  0.0 7.25 0.0 0.0
    dihedral_coeff 556  0.0 7.25 0.0 0.0
    dihedral_coeff 557  0.0 7.25 0.0 0.0
    dihedral_coeff 558  0.0 2.17 0.0 0.0
    dihedral_coeff 559  0.0 2.17 0.0 0.0
    dihedral_coeff 560  0.0 0.0 0.0 0.0
    dihedral_coeff 561  0.0 0.0 0.0 0.0
    dihedral_coeff 562  0.0 7.25 0.0 0.0
    dihedral_coeff 563  0.0 7.25 0.0 0.0
    dihedral_coeff 564  0.0 7.25 0.0 0.0
    dihedral_coeff 565  0.0 7.25 0.0 0.0
    dihedral_coeff 566  0.0 7.25 0.0 0.0
    dihedral_coeff 567  0.0 7.25 0.0 0.0
    dihedral_coeff 568  0.0 7.25 0.0 0.0
    dihedral_coeff 569  0.0 7.25 0.0 0.0
    dihedral_coeff 570  0.0 7.25 0.0 0.0
    dihedral_coeff 571  0.0 7.25 0.0 0.0
    dihedral_coeff 572  0.0 7.25 0.0 0.0
    dihedral_coeff 573  0.0 7.25 0.0 0.0
    dihedral_coeff 574  0.0 7.25 0.0 0.0
    dihedral_coeff 575  0.0 7.25 0.0 0.0
    dihedral_coeff 576  0.0 7.25 0.0 0.0
    dihedral_coeff 577  0.0 7.25 0.0 0.0
    dihedral_coeff 578  0.0 7.25 0.0 0.0
    dihedral_coeff 579  0.0 1.62 0.0 -0.44
    dihedral_coeff 580  0.0 7.25 0.0 0.0
    dihedral_coeff 581  0.0 7.25 0.0 0.0
    dihedral_coeff 582  0.0 7.25 0.0 0.0
    dihedral_coeff 583  0.0 7.25 0.0 0.0
    dihedral_coeff 584  0.0 7.25 0.0 0.0
    dihedral_coeff 585  0.0 7.25 0.0 0.0
    dihedral_coeff 586  0.0 7.25 0.0 0.0
    dihedral_coeff 587  0.0 7.25 0.0 0.0
    dihedral_coeff 588  0.0 7.25 0.0 0.0
    dihedral_coeff 589  0.0 7.25 0.0 0.0
    dihedral_coeff 590  0.0 7.25 0.0 0.0
    dihedral_coeff 591  0.0 7.25 0.0 0.0
    dihedral_coeff 592  0.0 7.25 0.0 0.0
    dihedral_coeff 593  0.0 0.0 -0.372 0.0
    dihedral_coeff 594  1.241 3.353 -0.286 0.0
    dihedral_coeff 595  0.0 0.0 -0.372 0.0
    dihedral_coeff 596  1.241 3.353 -0.286 0.0
    dihedral_coeff 597  0.0 0.0 0.0 0.0
    dihedral_coeff 598  0.0 0.0 0.0 0.0
    dihedral_coeff 599  0.0 2.03 0.0 0.0
    dihedral_coeff 600  0.0 3.9 0.0 0.0
    dihedral_coeff 601  0.0 7.936 0.0 0.0
    dihedral_coeff 602  0.0 3.9 0.0 0.0
    dihedral_coeff 603  0.0 2.03 0.0 0.0
    dihedral_coeff 604  0.0 7.25 0.0 0.0
    dihedral_coeff 605  0.0 7.25 0.0 0.0
    dihedral_coeff 606  0.0 7.25 0.0 0.0
    dihedral_coeff 607  0.0 7.0 0.0 0.0
    dihedral_coeff 608  0.0 0.0 0.0 0.0
    dihedral_coeff 609  0.0 -0.9 0.0 0.0
    dihedral_coeff 610  1.656 -0.768 -0.117 0.0
    dihedral_coeff 611  0.0 7.25 0.0 0.0
    dihedral_coeff 612  0.0 7.25 0.0 0.0
    dihedral_coeff 613  0.0 7.25 0.0 0.0
    dihedral_coeff 614  0.0 7.25 0.0 0.0
    dihedral_coeff 615  0.0 7.25 0.0 0.0
    dihedral_coeff 616  0.0 7.25 0.0 0.0
    dihedral_coeff 617  0.0 7.25 0.0 0.0
    dihedral_coeff 618  0.0 7.25 0.0 0.0
    dihedral_coeff 619  0.0 7.25 0.0 0.0
    dihedral_coeff 620  0.0 3.651 0.0 0.0
    dihedral_coeff 621  0.0 1.15 0.0 0.0
    dihedral_coeff 622  0.205 -0.531 0.0 0.0
    dihedral_coeff 623  0.0 0.0 -0.372 0.0
    dihedral_coeff 624  1.241 3.353 -0.286 0.0
    dihedral_coeff 625  0.0 7.25 0.0 0.0
    dihedral_coeff 626  0.0 7.25 0.0 0.0
    dihedral_coeff 627  0.0 0.0 0.3 0.0
    dihedral_coeff 628  0.0 0.0 0.3 0.0
    dihedral_coeff 629  0.0 0.0 -0.372 0.0
    dihedral_coeff 630  0.0 0.0 0.3 0.0
    dihedral_coeff 631  0.0 0.0 -0.372 0.0
    dihedral_coeff 632  1.423 4.055 0.858 0.0
    dihedral_coeff 633  0.0 0.0 0.3 0.0
    dihedral_coeff 634  0.0 0.0 -0.372 0.0
    dihedral_coeff 635  0.0 0.0 0.3 0.0
    dihedral_coeff 636  0.0 0.0 0.3 0.0
    dihedral_coeff 637  0.0 0.0 -0.372 0.0
    dihedral_coeff 638  0.0 0.0 -0.372 0.0
    dihedral_coeff 639  0.0 0.0 -0.372 0.0
    dihedral_coeff 640  1.423 4.055 0.858 0.0
    dihedral_coeff 641  0.0 2.1 0.0 0.0
    dihedral_coeff 642  0.0 2.1 0.0 0.0
    dihedral_coeff 643  0.0 2.03 0.0 0.0
    dihedral_coeff 644  0.0 7.25 0.0 0.0
    dihedral_coeff 645  0.0 7.25 0.0 0.0
    dihedral_coeff 646  0.0 7.25 0.0 0.0
    dihedral_coeff 647  0.0 7.25 0.0 0.0
    dihedral_coeff 648  0.0 7.25 0.0 0.0
    dihedral_coeff 649  0.0 7.25 0.0 0.0
    dihedral_coeff 650  0.0 10.0 0.0 0.0
    dihedral_coeff 651  0.0 7.25 0.0 0.0
    dihedral_coeff 652  0.0 7.25 0.0 0.0
    dihedral_coeff 653  0.0 7.25 0.0 0.0
    dihedral_coeff 654  0.0 7.25 0.0 0.0
    dihedral_coeff 655  0.0 5.0 0.0 0.0
    dihedral_coeff 656  0.0 10.0 0.0 0.0
    dihedral_coeff 657  0.0 10.0 0.0 0.0
    dihedral_coeff 658  0.0 3.05 0.0 0.0
    dihedral_coeff 659  0.0 4.65 0.0 0.0
    dihedral_coeff 660  0.0 10.0 0.0 0.0
    dihedral_coeff 661  0.0 5.0 0.0 0.0
    dihedral_coeff 662  0.0 2.8 0.0 0.0
    dihedral_coeff 663  0.0 5.0 0.0 0.0
    dihedral_coeff 664  0.0 2.17 0.0 0.0
    dihedral_coeff 665  0.0 2.17 0.0 0.0
    dihedral_coeff 666  0.0 7.25 0.0 0.0
    dihedral_coeff 667  0.0 7.25 0.0 0.0
    dihedral_coeff 668  0.0 3.35 0.0 0.0
    dihedral_coeff 669  0.0 6.0 0.0 0.0
    dihedral_coeff 670  0.0 7.25 0.0 0.0
    dihedral_coeff 671  0.0 7.25 0.0 0.0
    dihedral_coeff 672  0.0 7.25 0.0 0.0
    dihedral_coeff 673  0.0 10.0 0.0 0.0
    dihedral_coeff 674  0.0 10.0 0.0 0.0
    dihedral_coeff 675  0.0 7.25 0.0 0.0
    dihedral_coeff 676  0.0 10.0 0.0 0.0
    dihedral_coeff 677  0.0 7.25 0.0 0.0
    dihedral_coeff 678  0.0 7.25 0.0 0.0
    dihedral_coeff 679  0.0 7.25 0.0 0.0
    dihedral_coeff 680  0.0 4.8 0.0 0.0
    dihedral_coeff 681  0.0 7.25 0.0 0.0
    dihedral_coeff 682  0.0 7.25 0.0 0.0
    dihedral_coeff 683  0.0 10.0 0.0 0.0
    dihedral_coeff 684  0.0 7.25 0.0 0.0
    dihedral_coeff 685  0.0 7.25 0.0 0.0
    dihedral_coeff 686  0.0 13.05 0.0 0.0
    dihedral_coeff 687  0.0 2.17 0.0 0.0
    dihedral_coeff 688  0.0 2.17 0.0 0.0
    dihedral_coeff 689  0.0 2.17 0.0 0.0
    dihedral_coeff 690  0.0 2.17 0.0 0.0
    dihedral_coeff 691  0.0 2.17 0.0 0.0
    dihedral_coeff 692  0.0 7.25 0.0 0.0
    dihedral_coeff 693  0.0 10.75 0.0 0.0
    dihedral_coeff 694  0.0 10.75 0.0 0.0
    dihedral_coeff 695  0.0 10.75 0.0 0.0
    dihedral_coeff 696  0.0 10.75 0.0 0.0
    dihedral_coeff 697  0.0 10.75 0.0 0.0
    dihedral_coeff 698  0.0 7.25 0.0 0.0
    dihedral_coeff 699  0.0 7.25 0.0 0.0
    dihedral_coeff 700  0.0 7.25 0.0 0.0
    dihedral_coeff 701  0.0 2.17 0.0 0.0
    dihedral_coeff 702  0.0 2.17 0.0 0.0
    dihedral_coeff 703  0.0 2.17 0.0 0.0
    dihedral_coeff 704  0.0 2.17 0.0 0.0
    dihedral_coeff 705  0.0 10.75 0.0 0.0
    dihedral_coeff 706  0.0 10.75 0.0 0.0
    dihedral_coeff 707  0.0 10.75 0.0 0.0
    dihedral_coeff 708  0.0 10.75 0.0 0.0
    dihedral_coeff 709  0.0 2.17 0.0 0.0
    dihedral_coeff 710  0.0 2.17 0.0 0.0
    dihedral_coeff 711  0.0 2.17 0.0 0.0
    dihedral_coeff 712  0.0 2.17 0.0 0.0
    dihedral_coeff 713  0.0 7.25 0.0 0.0
    dihedral_coeff 714  0.0 7.25 0.0 0.0
    dihedral_coeff 715  0.0 7.25 0.0 0.0
    dihedral_coeff 716  0.0 7.25 0.0 0.0
    dihedral_coeff 717  0.0 10.75 0.0 0.0
    dihedral_coeff 718  0.0 7.25 0.0 0.0
    dihedral_coeff 719  0.0 7.25 0.0 0.0
    dihedral_coeff 720  0.0 7.25 0.0 0.0
    dihedral_coeff 721  0.0 7.25 0.0 0.0
    dihedral_coeff 722  0.0 2.17 0.0 0.0
    dihedral_coeff 723  0.0 2.17 0.0 0.0
    dihedral_coeff 724  0.0 2.17 0.0 0.0
    dihedral_coeff 725  0.0 2.17 0.0 0.0
    dihedral_coeff 726  0.0 2.17 0.0 0.0
    dihedral_coeff 727  0.0 2.17 0.0 0.0
    dihedral_coeff 728  0.0 2.17 0.0 0.0
    dihedral_coeff 729  0.0 2.17 0.0 0.0
    dihedral_coeff 730  0.0 2.17 0.0 0.0
    dihedral_coeff 731  0.0 7.25 0.0 0.0
    dihedral_coeff 732  0.0 6.089 0.0 0.0
    dihedral_coeff 733  0.0 4.9 0.0 0.0
    dihedral_coeff 734  0.0 6.089 0.0 0.0
    dihedral_coeff 735  0.0 20.0 0.0 0.0
    dihedral_coeff 736  2.3 6.089 0.0 0.0
    dihedral_coeff 737  0.0 4.9 0.0 0.0
    dihedral_coeff 738  2.3 6.089 0.0 0.0
    dihedral_coeff 739  2.3 6.089 0.0 0.0
    dihedral_coeff 740  0.0 0.0 0.0 0.0
    dihedral_coeff 741  0.0 0.0 0.0 0.0
    dihedral_coeff 742  0.0 0.0 0.0 0.0
    dihedral_coeff 743  0.0 0.0 0.0 0.0
    dihedral_coeff 744  0.0 0.0 0.0 0.0
    dihedral_coeff 745  0.0 0.0 0.0 0.0
    dihedral_coeff 746  0.0 0.0 0.0 0.0
    dihedral_coeff 747  0.0 0.0 0.0 0.0
    dihedral_coeff 748  0.0 0.0 0.0 0.0
    dihedral_coeff 749  0.0 0.0 0.0 0.0
    dihedral_coeff 750  0.0 0.0 0.0 0.0
    dihedral_coeff 751  0.0 0.0 0.0 0.0
    dihedral_coeff 752  0.0 0.0 0.0 0.0
    dihedral_coeff 753  0.0 0.0 0.0 0.0
    dihedral_coeff 754  0.0 0.0 0.0 0.0
    dihedral_coeff 755  0.0 14.0 0.0 0.0
    dihedral_coeff 756  0.0 14.0 0.0 0.0
    dihedral_coeff 757  0.0 14.0 0.0 0.0
    dihedral_coeff 758  0.0 14.0 0.0 0.0
    dihedral_coeff 759  0.0 14.0 0.0 0.0
    dihedral_coeff 760  0.0 14.0 0.0 0.0
    dihedral_coeff 761  0.0 14.0 0.0 0.0
    dihedral_coeff 762  0.0 14.0 0.0 0.0
    dihedral_coeff 763  0.0 14.0 0.0 0.0
    dihedral_coeff 764  0.0 14.0 0.0 0.0
    dihedral_coeff 765  0.0 14.0 0.0 0.0
    dihedral_coeff 766  0.0 14.0 0.0 0.0
    dihedral_coeff 767  0.0 14.0 0.0 0.0
    dihedral_coeff 768  0.0 14.0 0.0 0.0
    dihedral_coeff 769  0.0 14.0 0.0 0.0
    dihedral_coeff 770  1.423 4.055 0.858 0.0
    dihedral_coeff 771  1.816 1.222 1.581 0.0
    dihedral_coeff 772  0.0 0.82 0.0 0.0
    dihedral_coeff 773  1.0 0.0 0.0 0.0
    dihedral_coeff 774  -1.697 -0.456 0.585 0.0
    dihedral_coeff 775  -1.697 -0.456 0.585 0.0
    dihedral_coeff 776  -1.697 -0.456 0.585 0.0
    dihedral_coeff 777  6.28 -1.467 2.03 0.0
    dihedral_coeff 778  1.428 0.086 0.029 0.0
    dihedral_coeff 779  1.428 0.086 0.029 0.0
    dihedral_coeff 780  2.732 -0.229 0.485 0.0
    dihedral_coeff 781  0.845 -0.962 0.713 0.0
    dihedral_coeff 782  1.0 0.0 0.0 0.0
    dihedral_coeff 783  0.845 -0.962 0.713 0.0
    dihedral_coeff 784  1.0 0.0 0.0 0.0
    dihedral_coeff 785  0.845 -0.962 0.713 0.0
    dihedral_coeff 786  0.0 0.0 0.462 0.0
    dihedral_coeff 787  1.0 0.0 0.0 0.0
    dihedral_coeff 788  1.438 -0.124 0.264 0.0
    dihedral_coeff 789  0.0 0.0 0.347 0.0
    dihedral_coeff 790  0.0 0.0 0.347 0.0
    dihedral_coeff 791  0.0 0.0 0.0 0.0
    dihedral_coeff 792  0.0 0.0 0.0 0.0
    dihedral_coeff 793  1.7 -0.6 0.0 0.0
    dihedral_coeff 794  0.0 0.0 0.0 0.0
    dihedral_coeff 795  0.0 3.9 0.0 0.0
    dihedral_coeff 796  0.0 7.25 0.0 0.0
    dihedral_coeff 797  0.0 5.0 0.0 0.0
    dihedral_coeff 798  0.0 10.75 0.0 0.0
    dihedral_coeff 799  1.3 -0.05 0.2 0.0
    dihedral_coeff 800  1.3 -0.05 0.2 0.0
    # The following force field parameters were converted from
    # the tinker parameter file (oplsaa.prm) and then edited by hand:
    # Thanks to David Huang (adelaide.edu.au) for the corrections:

    improper_coeff 1  10.5 180.0  # (moltemplate)
    # <==> "imptors 0 0 3 4  21.000 180.0 2" in oplsaa.prm (tinker)
    # <==> "define improper_O_C_X_Y 180.0 43.93200 2" in oplsaa.ff (gromacs)

    improper_coeff 2  10.5 180.0  # (moltemplate)
    # <==> "imptors 0 0 3 52  21.000 180.0 2" in oplsaa.prm (tinker)
    # <==> "define improper_O_C_X_Y 180.0 43.93200 2" in oplsaa.ff (gromacs)

    improper_coeff 3  1.0 180.0  # (moltemplate)
    # <==> "imptors 0 0 24 0  5.000 180.0 2" in oplsaa.prm (tinker) - INCORRECT?
    # <==> "define improper_Z_N_X_Y 180.0 4.18400 2" in oplsaa.ff (gromacs)

    improper_coeff 4  15.0 180.0  # (moltemplate)
    # <==> "imptors 0 0 47 0  30.000 180.0 2" in oplsaa.prm (tinker)
    # <==> "define improper_Z_CM_X_Y 180.0 62.76000 2" in oplsaa.ff (gromacs)

    improper_coeff 5  1.1 180.0  # (moltemplate)
    # <==> "imptors 0 0 48 0  5.000 180.0 2" in oplsaa.prm (tinker) - INCORRECT?
    # <==> "define improper_Z_CA_X_Y 180.0 4.60240 2" in oplsaa.ff (gromacs)

    improper_coeff 6  10.5 180.0
    # <==> "define improper_N2_X_N2_N2 180.0 43.93200" in oplsaa.ff (gromacs)
    # <==> no corresponding line found in oplsaa.prm (tinker)

    # --- As of 2017-9-13, I am unsure if I should add this rule: ----
    # The gromacs file for oplsaa include the following line:
    # "define improper_X_NO_ON_NO 180.0 43.93200" in oplsaa.ff (gromacs)
    # but there is no corresponding line found in oplsaa.prm (tinker)
    # and there is no corresponding line from opls-a.prm (emc (BASF))
    # I'm not sure what the "NO" and "ON" correspond to.  If I had to guess,
    # the corresponding moltemplate line might be one of these two choices:
    # improper_coeff @improper:X_103_102_102  10.5 180.0  ?
    # improper_coeff @improper:X_102_103_103  10.5 180.0  ?
    # but I'd prefer to leave this out.


# ------------------------------- Run Section -------------------------------


# -- minimization protocol --

minimize 1.0e-4 1.0e-6 100000 400000
WARNING: Using 'neigh_modify every 1 delay 0 check yes' setting during minimization (../min.cpp:188)
PPPM initialization ...
WARNING: System is not charge neutral, net charge = -96.375000 (../kspace.cpp:325)
  using 12-bit tables for long-range coulomb (../kspace.cpp:340)
  G vector (1/distance) = 0.23643818
  grid = 9 9 9
  stencil order = 5
  estimated absolute RMS force accuracy = 0.015576961
  estimated relative force accuracy = 4.6909556e-05
  using double precision KISS FFT
  3d grid and FFT values/proc = 2744 729
Neighbor list info ...
  update every 1 steps, delay 0 steps, check yes
  max neighbors/atom: 2000, page size: 100000
  master list distance cutoff = 13
  ghost atom cutoff = 13
  binsize = 6.5, bins = 4 4 4
  1 neighbor lists, perpetual/occasional/extra = 1 0 0
  (1) pair lj/cut/coul/long, perpetual
      attributes: half, newton on
      pair build: half/bin/newton
      stencil: half/bin/3d
      bin: standard
Per MPI rank memory allocation (min/avg/max) = 37.35 | 37.35 | 37.35 Mbytes
Step Temp E_pair E_mol TotEng Press 
       0            0 8.8409488e+12    5074.4703 8.8409488e+12 3.031053e+14 
     127            0    158429.49    72290.422    230719.91    7616048.6 
Loop time of 9.67802 on 1 procs for 127 steps with 2125 atoms

100.0% CPU use with 1 MPI tasks x no OpenMP threads

Minimization stats:
  Stopping criterion = energy tolerance
  Energy initial, next-to-last, final = 
      8840948848130.21   230740.567416256   230719.913825785
  Force two-norm initial, final = 4.1505194e+13 291.14217
  Force max component initial, final = 2.3838583e+12 12.382513
  Final line search alpha, max atom move = 0.0021518451 0.026645250
  Iterations, force evaluations = 127 203

MPI task timing breakdown:
Section |  min time  |  avg time  |  max time  |%varavg| %total
---------------------------------------------------------------
Pair    | 9.0047     | 9.0047     | 9.0047     |   0.0 | 93.04
Bond    | 0.1747     | 0.1747     | 0.1747     |   0.0 |  1.81
Kspace  | 0.15138    | 0.15138    | 0.15138    |   0.0 |  1.56
Neigh   | 0.31671    | 0.31671    | 0.31671    |   0.0 |  3.27
Comm    | 0.020667   | 0.020667   | 0.020667   |   0.0 |  0.21
Output  | 0          | 0          | 0          |   0.0 |  0.00
Modify  | 0          | 0          | 0          |   0.0 |  0.00
Other   |            | 0.009904   |            |       |  0.10

Nlocal:        2125.00 ave        2125 max        2125 min
Histogram: 1 0 0 0 0 0 0 0 0 0
Nghost:        23661.0 ave       23661 max       23661 min
Histogram: 1 0 0 0 0 0 0 0 0 0
Neighs:    2.60433e+06 ave 2.60433e+06 max 2.60433e+06 min
Histogram: 1 0 0 0 0 0 0 0 0 0

Total # of neighbors = 2604326
Ave neighs/atom = 1225.5652
Ave special neighs/atom = 8.2352941
Neighbor list builds = 6
Dangerous builds = 0

# -- simulation protocol --

timestep        1.0

print "---------------------------------------------------------------------------"
---------------------------------------------------------------------------
print "First, use Langevin dynamics to randomize the initial shape of the molecules"
First, use Langevin dynamics to randomize the initial shape of the molecules
print "(This is not really necessary, but it seems to speed up equilibration.)"
(This is not really necessary, but it seems to speed up equilibration.)
print "---------------------------------------------------------------------------"
---------------------------------------------------------------------------

fix fxlan all langevin  300.0 300.0  100  123456  # temp: 300 K
fix fxnph all nph  iso 50.0 50.0 1000.0   # pressure: 50 barr
velocity all create 300.0 12345
run 2000
PPPM initialization ...
  using 12-bit tables for long-range coulomb (../kspace.cpp:340)
  G vector (1/distance) = 0.23643818
  grid = 9 9 9
  stencil order = 5
  estimated absolute RMS force accuracy = 0.015576961
  estimated relative force accuracy = 4.6909556e-05
  using double precision KISS FFT
  3d grid and FFT values/proc = 2744 729
Per MPI rank memory allocation (min/avg/max) = 35.11 | 35.11 | 35.11 Mbytes
Step Temp E_pair E_mol TotEng Press Volume 
     127          300    158429.49    72290.422    232619.29    7626901.6         8000 
    2127    314.41995   -11532.183     2430.795   -7110.7196    3898.9569    29205.034 
Loop time of 27.9474 on 1 procs for 2000 steps with 2125 atoms

Performance: 6.183 ns/day, 3.882 hours/ns, 71.563 timesteps/s
100.0% CPU use with 1 MPI tasks x no OpenMP threads

MPI task timing breakdown:
Section |  min time  |  avg time  |  max time  |%varavg| %total
---------------------------------------------------------------
Pair    | 22.131     | 22.131     | 22.131     |   0.0 | 79.19
Bond    | 1.78       | 1.78       | 1.78       |   0.0 |  6.37
Kspace  | 1.4272     | 1.4272     | 1.4272     |   0.0 |  5.11
Neigh   | 2.0947     | 2.0947     | 2.0947     |   0.0 |  7.50
Comm    | 0.09996    | 0.09996    | 0.09996    |   0.0 |  0.36
Output  | 2.408e-05  | 2.408e-05  | 2.408e-05  |   0.0 |  0.00
Modify  | 0.39239    | 0.39239    | 0.39239    |   0.0 |  1.40
Other   |            | 0.02184    |            |       |  0.08

Nlocal:        2125.00 ave        2125 max        2125 min
Histogram: 1 0 0 0 0 0 0 0 0 0
Nghost:        11236.0 ave       11236 max       11236 min
Histogram: 1 0 0 0 0 0 0 0 0 0
Neighs:        709015.0 ave      709015 max      709015 min
Histogram: 1 0 0 0 0 0 0 0 0 0

Total # of neighbors = 709015
Ave neighs/atom = 333.65412
Ave special neighs/atom = 8.2352941
Neighbor list builds = 82
Dangerous builds = 5
unfix fxlan
unfix fxnph

print "---------------------------------------------------------------------------"
---------------------------------------------------------------------------
print "--- Now continue the simulation using a Nose-Hoover Thermostat/Barostat ---"
--- Now continue the simulation using a Nose-Hoover Thermostat/Barostat ---
print "---------------------------------------------------------------------------"
---------------------------------------------------------------------------
dump            1 all custom 1000 traj_npt.lammpstrj id mol type x y z ix iy iz
# temperature: 300 K, pressure: 50 barr
fix             fxnpt all npt temp 300.0 300.0 100.0 iso 50.0 50.0 100.0 drag 1.0
thermo          100
#thermo_modify  flush yes

run             100000
PPPM initialization ...
  using 12-bit tables for long-range coulomb (../kspace.cpp:340)
  G vector (1/distance) = 0.22497413
  grid = 12 12 12
  stencil order = 5
  estimated absolute RMS force accuracy = 0.015462866
  estimated relative force accuracy = 4.6565963e-05
  using double precision KISS FFT
  3d grid and FFT values/proc = 4913 1728
Per MPI rank memory allocation (min/avg/max) = 35.29 | 35.29 | 35.29 Mbytes
Step Temp E_pair E_mol TotEng Press Volume 
    2127    314.41995   -11524.657     2430.795   -7103.1933    4518.3743    29205.034 
    2200    307.22946   -11204.967    2397.3756   -6862.4476    435.01933    32060.465 
    2300     303.7957   -11214.785    2427.7301   -6863.6512   -333.23067    32250.852 
    2400    298.76863    -11120.22     2434.909   -6793.7354    233.04067    33226.235 
    2500    298.51698   -11090.574    2440.5478   -6760.0437   -465.30161     33753.33 
    2600     303.8798   -11047.193    2392.6803   -6730.5769   -314.11948    34425.065 
    2700     307.7372   -11020.281    2346.0496   -6725.8727   -31.808525    34728.081 
    2800    301.12731   -11022.325    2378.4245   -6737.3915    312.32228    34651.574 
    2900    293.67929   -11012.405     2411.558   -6741.4931   -121.00933    34713.538 
    3000    298.91944   -10968.041    2384.7183   -6690.7923   -739.04461     35243.52 
    3100    306.89907   -10988.305    2354.3766   -6690.8765    533.60246    35193.771 
    3200    300.03109   -10949.214     2382.384   -6667.2613    567.42018    35649.578 
    3300    301.39781   -10957.362    2376.8637   -6672.2764    639.42027     35610.95 
    3400    299.20991   -10972.691    2384.8012   -6693.5198   -114.74027    35471.368 
    3500    300.71341   -10971.666    2354.8739   -6712.9029    107.68692    35350.809 
    3600    307.01375    -10985.66    2343.2405   -6698.6412   -323.61072    35452.355 
    3700    300.79295   -11001.495    2390.9269   -6706.1754   -15.979692    35426.818 
    3800    299.53252   -10959.592     2366.124   -6697.0555    605.71968    35564.312 
    3900    303.25836   -10977.721    2351.8115   -6705.9075    1069.1942    35444.365 
    4000    303.61627   -10956.291    2362.5993   -6671.4238   -459.26791    35871.858 
    4100     302.9313   -10992.761    2378.5086   -6696.3212     472.3284    35578.673 
    4200    298.54539   -10921.249    2379.0343   -6652.0518   -431.21738    36309.021 
    4300    301.91611   -10954.449    2384.0712   -6658.8747   -104.37393    36071.777 
    4400    301.36793   -10922.117    2369.8926   -6644.1911    370.52677    36231.647 
    4500    301.42535   -10956.911    2369.8503   -6678.6643    540.32834    35840.311 
    4600     309.4811    -10989.05      2330.23   -6699.4207    669.77655    35742.519 
    4700    293.52217   -10978.663    2394.3023   -6726.0008    301.04244    35590.598 
    4800    298.89888   -11003.067    2384.0473   -6726.6185   -223.65516    35476.629 
    4900    302.82228   -11007.573    2344.8145   -6745.5177    263.96147    35340.258 
    5000    295.48011   -10989.659    2387.6946   -6731.2091    49.553732    35404.736 
    5100    297.07658   -11034.858     2411.029   -6742.9653    729.25228    35108.542 
    5200    293.54723   -10939.401    2400.7822   -6680.1009    380.55358    35972.996 
    5300    295.42067   -10979.898    2409.4092   -6700.1099    362.48888    35497.661 
    5400    301.59671   -10962.557    2394.9313   -6658.1443    444.88463     35921.69 
    5500    305.97389   -10964.025    2367.1528   -6659.6781   -486.50916    35913.958 
    5600    299.53164    -10935.67    2388.0466   -6651.2166    502.08715    36026.308 
    5700    301.83465   -10921.936    2375.4748   -6635.4739   -472.61855    36333.219 
    5800    299.78998   -10907.308    2359.0245   -6650.2408    380.23171    36326.773 
    5900    303.21455   -10968.647    2370.6307   -6678.2919   -483.67523    35857.306 
    6000    303.67585     -10938.8    2362.5393   -6653.6153   -338.06102    36235.837 
    6100    300.64688   -10969.466    2381.8732   -6684.1247   -329.23585    35813.601 
    6200    301.04393   -10949.162    2364.3136   -6678.8665    50.243746    35930.296 
    6300    298.08643   -11020.595    2404.2565    -6729.082   -456.95031     35282.82 
    6400    302.88046    -10988.22    2370.7835   -6699.8271   -19.796575    35765.482 
    6500    303.10234    -10986.87    2369.8923    -6697.964   -1067.9338    35819.598 
    6600     304.9074   -10982.812    2361.1888   -6691.1813   -944.56702    35896.867 
    6700    302.01919   -10951.905    2366.3816   -6673.3677   -180.82681    36152.623 
    6800     302.9302   -11008.682    2371.8048   -6718.9528   -727.44108    35670.771 
    6900    295.43831   -11000.524    2413.1483   -6716.8844   -84.100276    35768.967 
    7000    301.06413   -10979.397    2362.8376   -6710.4495   -56.678133    35897.742 
    7100    298.32731   -10982.675    2383.6404   -6710.2528   -183.50113    35862.091 
    7200    294.89633   -10949.074    2396.4881   -6685.5265   -869.53867    36182.533 
    7300    291.85799   -10943.317     2412.789   -6682.7047   -57.369944    36115.512 
    7400     295.6853   -10941.581    2402.7723   -6666.7543   -333.19089    36071.422 
    7500    291.55279    -10910.87    2436.9784   -6628.0008    478.53238    36405.943 
    7600    300.10403    -10906.39    2387.7784   -6618.5811   -136.82221    36605.787 
    7700    301.35786    -10927.58    2387.7645   -6631.8468    241.65951    36497.805 
    7800    297.24594    -10927.55    2392.6379   -6652.9764    -2.975815    36430.933 
    7900    301.58337   -10930.994      2364.73   -6656.8675     94.96266    36356.034 
    8000    294.11851    -10946.12    2430.3253   -6653.6599   -127.57553    36310.254 
    8100    301.25556   -10942.851     2382.519    -6653.011   -820.90583    36414.802 
    8200    306.20121   -10944.364    2334.6411   -6671.0893    141.22469    36315.545 
    8300     302.6549   -10930.907    2360.4171   -6654.3094    -16.25266    36523.099 
    8400    292.68355   -10929.819    2414.0874   -6662.6818    181.85479    36437.489 
    8500     289.9984   -10930.523    2429.9022    -6664.571   -747.98865    36306.353 
    8600    304.77224    -10943.26    2362.6473    -6651.026     374.0528    36349.558 
    8700    302.22806   -10906.358    2375.1926   -6617.6866   -107.57449    36802.308 
    8800    304.09192   -10973.941    2369.0299   -6679.6321    93.723924    36073.207 
    8900    306.62676    -10932.37     2336.267   -6654.7751   -37.198844     36674.94 
    9000    300.84069   -10932.923    2346.1139   -6682.1144    513.67319    36297.068 
    9100     296.3748   -10949.857    2417.1504   -6656.2868   -12.914887    36567.641 
    9200    294.58349   -10915.718    2417.0339   -6633.6054   -178.36337    36973.852 
    9300    294.67567    -10936.78    2398.1943   -6672.9234    312.98843    36437.657 
    9400    295.49035   -10909.407    2384.9824   -6653.6046   -578.65028    36711.161 
    9500    303.93368   -10940.689    2365.7047   -6650.7072   -155.85453    36670.638 
    9600    299.95787   -10932.462    2386.9976   -6646.3586    124.36722    36783.331 
    9700    298.11578   -10927.277    2386.0771   -6653.7568   -395.56557    36790.844 
    9800    300.47993   -10929.393    2349.6285   -6677.3538    676.72891     36486.46 
    9900    296.89941   -10911.391     2388.046    -6643.603   -75.699476    36943.725 
   10000    297.17014   -10871.922    2376.1423   -6614.3242    638.71443    37120.078 
   10100    300.69015   -10889.637    2388.5745   -6597.3203      371.044    37012.264 
   10200    301.33179   -10932.885    2392.2439   -6632.8375    1140.2376    36459.027 
   10300    298.10996   -10909.412    2411.2596   -6610.7463     471.4834    36923.124 
   10400    301.90847   -10931.258    2409.6837   -6610.1194    701.17821    37048.593 
   10500    302.11281   -10903.657    2357.9445   -6632.9636    1019.2555    36933.739 
   10600    292.78946   -10901.295    2414.1782   -6633.3968    82.704709    36922.813 
   10700    302.32367    -10928.85    2373.6393   -6641.1269    154.17067    36780.101 
   10800    301.94128   -10912.555    2366.1775   -6634.7147      570.846    36806.338 
   10900    304.09067   -10962.946    2373.7347   -6663.9403    955.24448    36326.796 
   11000    299.36657   -10959.686    2398.2974   -6666.0272    197.23421    36403.854 
   11100     300.2611   -10964.934    2384.5047   -6679.4035   -80.510659    36387.257 
   11200    298.85993   -10995.438    2391.5905   -6711.6934    239.79024    36057.682 
   11300    289.73812   -10975.274    2434.9486   -6705.9239    767.83138    36126.906 
   11400    300.03264   -10991.581    2389.6517   -6702.3504    438.77518    36191.273 
   11500    304.93356   -11014.736     2352.336   -6731.7922    580.94502    35777.864 
   11600      303.062   -11023.494    2381.6906   -6723.0446   -127.29662    35988.679 
   11700    294.58107   -11030.344    2400.2952   -6764.9851    587.90212    35677.597 
   11800    295.46566   -11018.591    2389.5476   -6758.3794     702.0309    35784.045 
   11900    293.90299   -10985.285    2395.7693    -6728.745    -401.8683    36054.838 
   12000    294.80758   -10983.349    2411.4933    -6705.358   -225.80329    36242.891 
   12100    297.42721   -10973.998    2392.1971   -6698.7179     121.5171    36359.469 
   12200    295.62614   -10950.195    2402.7592   -6675.7551    533.49683    36593.497 
   12300    303.14515   -10932.362    2365.1979   -6647.8792     78.55383    36745.802 
   12400      299.018    -10978.34    2419.7612   -6665.4238    751.33767    36438.026 
   12500     298.3476   -10990.054    2388.5767   -6712.5672    193.61532    36094.512 
   12600    298.71156    -11003.96    2375.7709    -6736.974   -79.019294    35896.771 
   12700    300.13656   -11001.111    2369.7896    -6731.085    176.75366    36056.836 
   12800    301.13728   -10984.773    2365.0034   -6713.1967   -12.792044    36211.184 
   12900    298.44636   -10957.706    2384.6385   -6683.5319   -163.80224    36448.027 
   13000    301.96534    -10979.43    2393.7287   -6673.8861   -961.06671    36440.425 
   13100    302.85703   -10991.104    2370.9322   -6702.7113     426.1171    36194.351 
   13200    302.06038   -11027.255    2375.0654   -6739.7726    -131.3056     35853.18 
   13300    299.58085   -11032.121    2391.8349   -6743.5679   -191.88047    35963.083 
   13400    299.63919   -10984.453    2366.7621   -6720.6033   -135.16915    36253.187 
   13500    298.04793    -10994.04    2406.5798   -6700.4475   -5.4187281     36229.47 
   13600    294.10829   -10977.789    2409.1572   -6706.5616   -121.87201    36125.032 
   13700    300.08036   -11026.198     2401.807   -6724.5102    898.51938     35902.64 
   13800    300.77628    -11018.99    2406.4085    -6708.295   -6.1037684    36284.826 
   13900    303.40084   -11032.129    2370.9345    -6740.291    52.383484    36025.556 
   14000    305.19774   -10996.936    2349.2799    -6715.376   -413.08902    36430.515 
   14100    297.26544   -11046.786    2399.3687   -6765.3581    279.27577    35731.403 
   14200    297.68442   -10984.357    2387.6224   -6712.0224   -3.3969522    36256.642 
   14300     303.3788   -10991.657    2369.7672    -6701.126    741.19464    36182.556 
   14400    303.28209   -11029.345    2384.3599   -6724.8333    151.96715    35775.331 
   14500     293.2204   -10967.815    2423.3345   -6688.0314   -75.722089    36346.311 
   14600    298.85801   -11001.061    2419.4113   -6689.5074   -37.824226    36321.089 
   14700    299.78916   -11004.762     2402.989   -6703.7353   -571.64145    36225.975 
   14800    295.02348   -11012.416    2405.7304   -6738.8214   -504.87448    35922.223 
   14900    297.42343   -11030.934    2381.2495   -6766.6254    -298.9112    35630.103 
   15000    297.23142   -11015.409      2399.29   -6734.2757    181.44511    35854.839 
   15100    302.94952    -11037.21    2376.5095   -6742.6542    90.122296    35633.613 
   15200     301.4719   -11085.974    2396.6558   -6780.6267    273.66409    35186.543 
   15300    297.30771   -11013.049    2409.7601   -6720.9621    119.44352    36116.937 
   15400     300.9478   -11027.027    2392.2884   -6729.3655    103.81357    35945.936 
   15500    303.21736   -11022.947    2384.4214   -6718.7836   -339.41519    36041.936 
   15600    299.10165   -11032.639    2404.5506    -6734.404    220.11675    35994.906 
   15700    301.96951   -10989.735    2357.2032   -6720.6905    303.16794    36371.695 
   15800     298.0707   -11011.865     2389.838   -6734.8696    504.65934    36136.217 
   15900    296.97809    -10979.99    2405.8007   -6693.9495   -20.179283    36621.105 
   16000    300.83234   -10980.646    2352.2661   -6723.7379    360.68029     36227.04 
   16100    294.99507   -10980.051    2408.7654   -6703.6005   -180.86906    36292.509 
   16200    298.06088   -10979.523    2405.2478   -6687.1804    128.24681    36273.061 
   16300    297.42923   -10980.443    2427.4289   -6669.9181    51.164051    36368.503 
   16400    292.76794   -10927.994    2434.3945    -6640.015     -141.321    36866.953 
   16500    300.19485    -10972.78    2405.9831   -6666.1912   -65.696095    36444.056 
   16600    299.95654   -10982.659    2424.8669   -6658.6955   -547.52506    36558.581 
   16700    305.86067   -10996.108    2379.9085   -6679.7218    362.94203    36422.803 
   16800    292.61119   -10978.795     2440.753     -6685.45   -1315.5189    36452.981 
   16900    297.15353   -10995.113    2417.7406   -6696.0222   -438.93314    36336.655 
   17000    306.72142   -11032.772    2366.8357   -6724.0093   -449.66453    36015.572 
   17100    303.05484   -11001.445    2370.7157   -6712.0162   -212.29195    36323.584 
   17200    303.98741   -11026.807     2357.174   -6745.0158   -321.83083    35978.524 
   17300    298.72297   -11017.427    2397.2924   -6728.8476    88.543501    36065.082 
   17400    302.22406   -11030.422    2392.0264   -6724.9429   -112.20624    35953.055 
   17500    299.22998    -11048.59    2413.2378   -6740.8552    -377.8447    35785.722 
   17600    292.79815   -10985.281    2420.9782   -6710.5275    164.85982    36334.353 
   17700    300.03993   -11014.435    2403.9983   -6710.8119    -610.8364    36151.996 
   17800    301.88808   -11020.947    2388.6553   -6720.9656    429.58886    36086.829 
   17900     302.3172   -11021.229    2391.8688   -6715.3169   -664.15969    36213.034 
   18000    305.50705    -11064.79    2364.8121   -6765.7395   -43.823086    35638.553 
   18100    296.82618   -11043.286    2403.9455   -6760.0622   -301.40787    35602.197 
   18200    298.54677   -11037.604    2403.8324   -6743.6004    727.19016    35733.007 
   18300    302.26946   -11028.492    2405.3501   -6709.4008    910.06393    36130.811 
   18400    300.23318   -11021.209    2398.2674   -6722.0935   -355.31774    36170.731 
   18500     301.9573   -11025.988    2365.1535   -6749.0706   -15.953305    36019.524 
   18600     301.6383   -11046.154    2377.6919   -6758.7171    483.42695    35930.582 
   18700     300.4335   -11041.906    2380.1277   -6759.6611    178.18649    36025.695 
   18800    300.04491    -10985.56    2372.2891   -6713.6144    438.29494    36637.862 
   18900    294.58989   -10995.883    2432.3451   -6698.4182   -346.44851    36506.141 
   19000    301.15396   -11025.752    2404.6368   -6714.4367     315.3716    36112.425 
   19100    306.65321   -11063.276    2365.8257   -6755.9555    76.022457    35803.959 
   19200    297.32816    -11032.49    2413.3427   -6736.6913   -283.49297    36274.676 
   19300    302.67101   -11046.139    2377.8653   -6751.9909   -606.71862    36157.108 
   19400    299.46417   -11050.571    2401.1253    -6753.466    668.99853    36133.301 
   19500    297.79402   -11024.834    2388.1335   -6751.2951   -341.75451     36134.11 
   19600    303.85805   -11084.096    2385.2305   -6775.0667   -184.84722    35691.397 
   19700    295.26696   -11022.155    2416.3073   -6736.4421   -1043.9926    36428.348 
   19800    297.78869   -11040.176    2407.0382   -6747.7656    592.93522    36135.906 
   19900    303.83808   -11085.211    2374.2453   -6787.2933     668.7333    35586.647 
   20000    297.39799   -11035.305    2384.3497   -6768.0566    599.99854    35965.208 
   20100    304.04639   -11059.418     2359.504   -6774.9229   -753.43976    35799.404 
   20200     302.0594   -11042.788    2366.0371   -6764.3399    303.17559    36023.292 
   20300    292.67129   -11032.383    2426.8246   -6752.5857   -672.40332    36019.568 
   20400    297.00756   -11074.542     2418.941    -6775.175    766.51914    35643.103 
   20500    293.38367   -11005.601    2409.0737   -6739.0444    316.57453    36165.555 
   20600     301.5802   -11056.713     2401.342   -6745.9946    403.40413    35879.565 
   20700    301.90497   -11032.025    2385.0725    -6735.519   -309.20505    36201.436 
   20800    300.41185   -11067.207    2395.5278   -6769.6992   -13.097779    35929.753 
   20900    301.49478     -11023.9    2363.8385    -6751.226   -85.374687    36212.766 
   21000    298.95034   -11029.595    2385.8152   -6751.0534    296.27043    36084.177 
   21100    296.19248   -10982.103    2390.7175     -6716.12    568.54052    36512.004 
   21200    303.71904   -11040.559    2363.0342   -6754.6064   -595.24521    35894.128 
   21300    291.65981   -11002.035      2438.49   -6716.9765   -197.37175    36324.996 
   21400    298.01413   -11051.753     2408.197    -6756.757    319.80443    35744.492 
   21500    299.51063   -11015.764    2402.8856   -6716.6042    3.9818712    36358.948 
   21600    303.60776   -11041.294    2373.2744   -6745.8054    616.53489    35936.265 
   21700    302.40057   -11054.873    2381.0064   -6759.2955   -86.734666    35781.175 
   21800    298.25301   -11007.047    2365.0781   -6753.6578    697.26136    35906.672 
   21900    303.12436   -11050.019    2363.9684   -6766.8969   -50.519503    35732.852 
   22000     296.3779   -11066.176    2396.9041   -6792.8321    234.77919    35427.752 
   22100    299.95523   -11041.522    2364.2323   -6778.2009    218.20609     35599.06 
   22200    304.65177    -11073.68    2369.9464   -6774.9098    417.04655    35475.469 
   22300    298.01264   -11054.101    2410.6413   -6756.6695   -15.776796    35688.486 
   22400    300.26025   -11088.109    2418.0245   -6769.0644     615.5013    35455.338 
   22500    301.47391   -11007.525    2372.5454   -6726.2758    227.13196    36104.368 
   22600    298.41083   -11083.885     2414.114   -6780.4602    68.674872    35315.245 
   22700    301.49992   -11044.373    2387.5681   -6747.9361    442.42819    35753.169 
   22800    298.77379   -11017.126    2399.2059   -6726.3115    111.27998    36104.913 
   22900    302.61806   -11035.937    2373.1525   -6746.8371    767.61269    35862.189 
   23000    303.41939   -11077.442    2387.3821   -6769.0386    563.37062    35673.429 
   23100    297.20927   -11027.267    2388.9707   -6756.5931    478.53306    35973.395 
   23200    299.48902   -11054.343     2387.554   -6770.6516    550.06936    35747.485 
   23300    298.91224   -11054.128    2392.6045   -6769.0379    486.48185     35730.99 
   23400    296.16677   -11021.958    2424.2718   -6722.5836   -369.42579    36218.707 
   23500    301.93599   -11039.387    2397.0431   -6730.7145    1164.7655    36037.752 
   23600    306.50368    -11113.89    2391.1862   -6782.1549   -259.74366    35515.213 
   23700    302.94547   -11075.779     2360.978   -6796.7807    273.27518    35616.733 
   23800    301.47809   -11085.698    2387.4144   -6789.5534   -399.67871    35635.294 
   23900    305.58546    -11045.52    2332.9052   -6777.8798    14.618497    35722.636 
   24000    297.69569   -11086.699    2416.0365   -6785.8791   -190.64939    35479.911 
   24100    302.61825   -11054.992    2374.4371   -6764.6061   -554.00791    35751.789 
   24200    295.34215   -11102.386    2425.5937     -6806.91   -470.78213    35312.333 
   24300    298.57494   -11080.561    2395.8784   -6794.3326   -446.99217    35496.446 
   24400    298.64517   -11070.422    2401.0951   -6778.5322   -431.31089    35719.433 
   24500    298.18088   -11091.155    2394.5804   -6808.7195   -255.58854     35353.51 
   24600    306.59016    -11078.18    2338.1993   -6798.8848    -706.8693    35538.912 
   24700    305.93995   -11108.122    2361.2803   -6809.8618   -420.31052    35354.696 
   24800    299.99483   -11116.233    2384.3457   -6832.5482    392.18653    35102.357 
   24900    293.42683   -11075.542     2404.887   -6812.8989   -343.43607     35421.15 
   25000    300.31125   -11119.194    2374.5123    -6843.339      146.374    35050.363 
   25100    301.18153   -11116.002    2356.0075    -6853.142   -561.16153    35025.308 
   25200     294.0155   -11106.385    2400.2386   -6844.6632    -356.9921    34989.441 
   25300    297.12661   -11119.177    2415.0577   -6822.9388   -273.67492     35039.91 
   25400    298.29507   -11111.809    2411.9113   -6811.3198   -19.228684    35188.562 
   25500    300.76868   -11110.953    2392.2725   -6814.4418    182.61817    35209.566 
   25600    300.71974   -11097.043    2384.3585   -6808.7552    618.13959    35330.829 
   25700    295.46216   -11100.112    2410.6297   -6818.8398   -346.14526    35183.164 
   25800    298.22163   -11082.206    2397.8642   -6796.2289    273.07157    35560.642 
   25900    294.14099   -11096.215    2411.0936   -6822.8438   -155.51395    35286.054 
   26000    299.62595   -11091.329    2375.6216   -6818.7031    153.61274    35308.766 
   26100    304.51366   -11106.285    2363.8223   -6814.5132    367.74745    35320.536 
   26200    306.48459   -11187.263    2366.6476   -6880.1875    505.48505    34684.418 
   26300    301.91789   -11050.843    2319.5093   -6819.8192    46.589387    35701.254 
   26400    301.95804     -11077.7     2362.234   -6803.6967    118.20222    35638.402 
   26500    300.52529   -11040.424    2373.3038   -6764.4228   -340.27469    36072.642 
   26600     292.7404   -11003.802    2407.2779   -6743.1142   -86.909654    36298.168 
   26700    302.21979   -11048.752    2368.0515   -6767.2745     128.6257    35817.147 
   26800    303.35383   -11042.432    2374.9031   -6746.9228    238.01718    36009.325 
   26900    301.01591   -11037.512    2383.4617   -6748.2464    113.31957    35916.127 
   27000    297.84488   -11036.811    2414.5793   -6736.5044     503.8866    36079.405 
   27100    300.45175   -11020.717    2375.5778   -6742.9068    582.65191    36183.832 
   27200    305.64613   -11011.871    2350.9692   -6725.7823    389.94827    36325.941 
   27300     301.0772   -11022.499    2377.9607    -6738.346    274.43049    36063.347 
   27400    295.01263   -11051.298    2430.7809   -6752.7208   -36.625478    35787.994 
   27500     304.3864   -11069.364    2385.0498   -6757.1705    651.55361    35710.049 
   27600      303.348   -11061.219    2386.3406   -6754.3092   -326.33312    35798.937 
   27700     299.8832   -11130.413    2419.9057   -6811.8742    1194.1712    35186.079 
   27800    297.69012   -11123.462     2415.641   -6823.0729    161.78736    35310.204 
   27900    303.04141   -11113.632    2368.8826   -6826.1215    731.68438    35435.862 
   28000    293.66455   -11078.828    2421.5172   -6798.0495   -91.264639    35832.936 
   28100    302.13426   -11057.548     2358.235   -6786.4287      1008.86    35900.836 
   28200    298.06495   -11071.259    2406.3605    -6777.778    41.273184    35860.887 
   28300    299.34064   -11064.393    2394.2346   -6774.9606    808.34145    35956.871 
   28400    299.84291   -11070.653    2367.4528   -6804.8229    586.22934    35588.679 
   28500    297.71062   -11022.901    2401.6118    -6736.412    392.98372    36286.506 
   28600    299.91437   -10991.054    2402.4893   -6689.7349    30.032987    36773.414 
   28700    304.20899   -11042.258    2373.8247   -6742.4126    895.57536    36095.498 
   28800    300.37686   -11004.102    2395.6827    -6706.661   -133.20679    36711.335 
   28900    291.54525   -11016.077    2436.5957   -6733.6377    266.48473    36460.544 
   29000    297.49704    -11031.54     2389.034   -6758.9807    605.73011    36221.044 
   29100    297.81025   -10958.609    2393.6034   -6679.4968   -18.776582    37181.123 
   29200    299.11854   -11016.395    2410.8246   -6711.7794    536.30924    36443.108 
   29300    296.37066   -11033.596    2420.6331   -6736.5691    411.65075    36053.218 
   29400     303.9332   -11068.413    2395.1773   -6748.9616   -286.59197    35920.296 
   29500    299.56232   -11084.156    2417.6349   -6769.9198    327.38398    35816.794 
   29600    296.21297    -11087.79    2421.3707   -6791.0236   -301.29006    35700.727 
   29700    297.25473   -11123.811    2396.6323   -6845.1873    137.73457    35058.636 
   29800    294.27313   -11086.621    2430.1852   -6793.3214   -178.07551    35650.555 
   29900    299.99776   -11102.515    2396.9282   -6806.2286   -352.65164    35487.988 
   30000    294.56847    -11033.76    2405.1472   -6763.6289    -188.4001    36044.641 
   30100    297.59725   -11037.444    2396.5381   -6756.7457    176.81736    35918.071 
   30200    295.99407   -11065.767    2421.0848   -6770.6726   -1.2756533    35589.203 
   30300    297.38277   -11046.755    2408.2373   -6755.7157    155.50578    35738.416 
   30400    302.34842   -11041.641    2396.3289   -6731.0714    253.59827    35990.842 
   30500    301.33211   -11072.501    2404.9373   -6759.7574    364.82089    35750.908 
   30600    295.48364   -11076.924    2421.9618   -6784.1845   -629.43184      35646.7 
   30700    297.37947   -11077.794    2401.3108   -6793.7019    317.65581    35505.675 
   30800    301.87575   -11086.979    2399.6368   -6776.0939    -948.1704    35630.807 
   30900    300.68728   -11106.868    2415.8501   -6787.2946    675.71384    35414.115 
   31000    303.81216   -11092.517     2380.243    -6788.766   -293.75024    35369.063 
   31100    302.26341   -11118.129    2400.3929   -6804.0339    25.198125      35251.6 
   31200    299.76258   -11070.428    2398.3809   -6774.1785   -632.06126    35809.383 
   31300    300.39075   -11127.316    2425.1895   -6800.2804   -444.64362    35501.015 
   31400    297.91854   -11089.158     2399.398   -6803.5665   -643.64061    35738.215 
   31500    295.87032   -11080.524     2397.783   -6809.5148    -663.6244    35775.338 
   31600    297.33062   -11022.529    2375.8317   -6764.2255   -54.958822    36181.621 
   31700    294.35847   -11038.453    2427.9616   -6746.8366    104.39874    36008.672 
   31800     302.3559   -11075.816    2398.2864   -6763.2417   -563.34001    35733.205 
   31900    303.22844   -11050.295    2388.8032   -6741.6791   -564.41071    36081.219 
   32000    304.54788   -11046.478    2386.9654   -6731.3468     478.5902    36053.818 
   32100    299.85509   -11024.666    2424.7273   -6701.4838   -80.719653    36489.287 
   32200    300.06964   -11003.286    2410.9207   -6692.5528    432.52036     36710.54 
   32300    303.09745   -11090.011    2422.3496   -6748.6781   -301.86948      36003.7 
   32400    298.32849     -11027.6    2401.0222   -6737.7882    26.284209    36474.626 
   32500    302.49348   -11076.063    2380.2362   -6780.6679   -160.36218    35994.337 
   32600    301.81591   -11015.164    2349.0081   -6755.2862    814.61705    36469.065 
   32700    300.75678   -11082.025    2384.3783   -6793.4833   -92.660375    35888.039 
   32800    296.70725   -11042.649     2394.315   -6769.8094   -224.65244    36211.868 
   32900    301.29141   -11040.378    2366.8598   -6765.9702    42.037549    36046.452 
   33000     297.8495   -11053.189    2423.1892   -6744.2433    721.33809    36150.313 
   33100    296.92766   -11066.558    2413.6632   -6772.9742   -84.150274    35798.115 
   33200    305.04387   -11050.473    2362.0647   -6757.1022    279.89496    35996.849 
   33300    303.22314   -11083.471    2397.4464   -6766.2463   -457.72125     35816.93 
   33400    300.40994   -11071.014    2410.0718   -6758.9744   -468.89823    35931.926 
   33500    301.60718   -11103.588    2396.9701   -6797.0705    333.77597    35531.697 
   33600    301.91855   -11069.738    2366.8371   -6791.3824    381.61071    35744.378 
   33700    298.69253   -11018.285    2383.6685   -6743.5224   -102.87596    36304.142 
   33800    296.58126   -11054.146     2429.458    -6746.961   -742.66569    36036.267 
   33900    301.50004   -11050.505    2392.8993   -6748.7362    998.36559    35966.488 
   34000    301.67812   -10997.006    2378.4976   -6708.5113    666.22626     36480.82 
   34100    301.16125   -11044.553     2403.446   -6734.3823    820.10331    36110.177 
   34200    294.96332   -11072.766    2444.0338   -6761.2485    98.949037    35896.888 
   34300     301.8764   -11052.875    2386.9599   -6754.6624    608.52059    36065.576 
   34400     302.7698   -11057.411    2389.2164   -6751.2861   -208.15867    36080.426 
   34500    298.45605   -11024.462    2394.5615   -6740.3035    1106.4955    36262.019 
   34600    300.84908   -11088.525    2411.4204   -6772.3569    247.20431    35844.002 
   34700    295.26064   -11049.999     2415.298   -6765.3348    339.85565    36075.558 
   34800     298.7237   -11022.193    2380.7985   -6750.1034    541.97927    36139.187 
   34900    299.89859    -11028.44    2408.9159   -6720.7938     899.6274    36306.105 
   35000    298.06899   -11017.905    2416.8036   -6713.9551    303.74801    36363.135 
   35100     303.4468   -11035.963    2387.6294   -6727.1384   -44.185623    36258.137 
   35200     298.3326   -11071.808    2407.0991   -6775.8932     230.3614     35798.21 
   35300    303.53459   -11000.972    2352.0696   -6727.1517     215.6918    36478.785 
   35400    305.54821   -11021.208    2372.2486   -6714.4606    242.10586     36389.24 
   35500    298.94944    -11064.06     2435.259   -6736.0805   -45.590678    35945.753 
   35600    296.26769   -11012.153    2425.1243   -6711.2865    -393.6922    36351.213 
   35700    299.35705   -11009.278    2426.2438   -6687.7324   -828.87545    36546.508 
   35800    299.41154   -11063.458    2439.9323   -6727.8788   -311.86881    35961.496 
   35900    301.40285   -11023.407    2404.4709   -6710.6822    179.95328     36301.19 
   36000    300.88753   -11066.718    2426.9397    -6734.787   -142.62764    36069.431 
   36100    297.87501   -11122.491    2440.2414   -6796.3312    219.72298    35360.293 
   36200    299.22899   -11087.644      2425.87   -6767.2832   -179.75845    35875.214 
   36300    295.99697   -11049.822    2405.8086   -6769.9851   -746.84747    36073.151 
   36400    300.23188   -11042.481     2395.973   -6745.6675   -49.933547    36356.574 
   36500    298.28544   -11081.282    2438.0163   -6754.7484   -349.72868    36055.843 
   36600    291.09364   -11022.162    2428.0691   -6751.1095    172.17542    36150.009 
   36700    293.79794   -11000.782    2420.0863     -6720.59   -341.41377    36339.641 
   36800     297.1604   -11095.708    2461.8142   -6752.4999   -235.94061    35624.983 
   36900    297.74503   -11082.412    2435.8369   -6761.4797   -507.26877    35660.116 
   37000    299.50375   -11081.556    2413.0069   -6772.3186   -684.41349    35760.363 
   37100    294.43764   -11039.801    2406.8446   -6768.8007   -317.19395    35952.057 
   37200    298.32868   -11057.413    2393.8214   -6774.8012   -314.86215    35670.877 
   37300    301.83978   -11100.284    2414.4702   -6774.7935   -82.332549     35541.11 
   37400    303.07651   -11080.656    2378.9229   -6782.8828   -12.246366    35624.583 
   37500    295.69531   -11081.284    2434.5184   -6774.6474   -231.16514    35788.005 
   37600    294.04203   -11054.938    2415.7938   -6777.4936     171.4597    35654.163 
   37700    296.86402   -11061.016    2422.2804   -6759.2182    164.88758    35834.384 
   37800    297.97227   -11032.975    2411.1191   -6735.3218   -272.75233    36195.007 
   37900    299.51642   -11052.194    2388.2549   -6767.6285   -767.64827    35809.756 
   38000    297.88376   -11072.301    2409.0977   -6777.2296   -335.20017     35742.74 
   38100    301.58102   -11061.903    2379.5548   -6772.9665    766.49673    35810.327 
   38200    295.86861   -11090.066    2398.4813   -6818.3689    830.02917    35328.457 
   38300    301.03057   -11104.499    2363.8741   -6834.7276    1078.6465    35154.986 
   38400    298.73691   -11079.068    2381.4208   -6806.2715    338.78981    35465.683 
   38500    296.05649     -11075.6    2399.8727   -6801.3223    632.29868    35442.418 
   38600     292.2186   -11070.885    2439.3247   -6781.4543    278.01152    35484.179 
   38700    305.29305   -11109.141    2399.2536   -6777.0039    672.60929    35355.323 
   38800    300.87013   -11059.464    2396.2409   -6758.3419    8.1108332    35754.161 
   38900    304.39921   -11069.128    2358.7911   -6783.1119    819.50369    35465.524 
   39000    302.72704   -11105.781     2406.763   -6782.3806     492.1647    35481.377 
   39100    301.22279   -11056.405    2367.3745   -6781.9162    305.12723    35702.428 
   39200    305.59263   -11094.792     2370.969   -6789.0423    512.36504    35508.707 
   39300    304.51878   -11107.947    2392.0672    -6787.898    641.76149    35614.915 
   39400    298.79232   -11044.613    2384.8633   -6768.0232    569.65866    36091.851 
   39500    296.92053   -11065.378    2400.8084   -6784.6944   -207.29756    35753.977 
   39600    293.23818   -11072.556    2415.8514   -6800.1433     183.9291    35464.762 
   39700    296.79903   -11072.947    2402.7805   -6791.0603    546.50354    35505.141 
   39800    302.06687   -11036.297    2371.4854   -6752.3534   -194.10003    35976.201 
   39900    304.33485   -11109.809    2390.6827   -6792.3096    551.46568    35326.938 
   40000    300.34727   -11114.798    2394.4642   -6818.7629    241.01596    35156.831 
   40100    301.55178   -11106.562    2377.0479   -6820.3172   -153.18506    35222.891 
   40200    301.20799   -11128.714    2372.0313   -6849.6621    613.42353    34986.999 
   40300    300.45953   -11064.923    2356.6145   -6806.0268   -60.009084    35480.467 
   40400    298.69457   -11117.561    2403.7333   -6822.7208   -25.658236    35014.341 
   40500    295.82718   -11065.805    2425.7414   -6767.1108   -915.50547    35721.369 
   40600    300.11493   -11091.993    2409.5439   -6782.3495   -28.439899     35521.21 
   40700    289.43405   -11082.683    2452.5469   -6797.6599   -851.98661    35450.585 
   40800    306.91624   -11117.849    2344.3105   -6830.3779    272.77254    35126.985 
   40900    292.78498   -11109.671    2421.9995   -6833.9798   -375.41356    35174.314 
   41000     291.1874   -11053.285      2418.54   -6791.1679   -304.36179    35714.754 
   41100    305.61219   -11120.381    2358.1171   -6827.3593   -393.54167    35068.476 
   41200    299.21523   -11085.585    2398.8059    -6792.376    29.580269    35557.952 
   41300    296.33501   -11082.817    2409.0223   -6797.6267   -695.47303    35447.821 
   41400    302.24413   -11118.422    2389.4583   -6815.3835   -447.56366    35283.183 
   41500    301.66733   -11092.309    2359.8025   -6822.5783   -550.94635    35385.163 
   41600    295.31741   -11042.101    2388.8899   -6783.4851    -1124.605    35788.479 
   41700    299.82448   -11101.789    2413.5254    -6790.003    528.27309    35402.685 
   41800    294.76333   -11121.506    2437.6533   -6817.6352   -188.25993    35059.572 
   41900    296.70447   -11069.007    2411.0775   -6779.4225    538.11485    35686.152 
   42000    293.22127   -11120.939    2460.7588   -6803.7255     -562.983    35383.369 
   42100     303.8275   -11118.864     2367.911   -6827.3482      775.629     35261.11 
   42200    304.14102   -11124.971    2369.1846   -6830.1966   -337.91406    35334.147 
   42300    293.19151   -11122.339    2403.7801   -6862.2934    1809.4914    34997.989 
   42400    298.01543   -11154.457    2402.5177   -6865.1324   -343.72482    34795.223 
   42500     299.0391   -11081.393    2391.0257   -6797.0788   -368.30094    35640.889 
   42600    299.81745   -11111.001     2403.279   -6809.5058   -517.07093    35457.062 
   42700    293.74463   -11098.258    2426.7113   -6811.7788   -119.19102     35456.24 
   42800    302.88678   -11060.915    2346.9839   -6796.2816    495.93314    35667.195 
   42900    298.45676   -11113.188    2403.9019   -6819.6848    591.30476     35175.68 
   43000    302.05996   -11054.389    2379.3616   -6762.6132    367.26775    35922.109 
   43100     299.9254   -11074.361    2406.4775   -6768.9833   -117.68104    35812.895 
   43200    299.77765   -11065.042    2389.3866   -6777.6911    1091.1642    35688.785 
   43300    303.50122   -11054.838    2357.6866    -6775.612    241.50146    35750.924 
   43400      303.629   -11143.433    2379.5251   -6841.5593    1549.4888    34892.239 
   43500     294.7877   -11056.138    2410.0319   -6779.7345   -38.560701     35830.78 
   43600    298.27124   -11086.619    2406.3128   -6791.8791    398.13413    35622.971 
   43700    300.42808   -11122.592    2388.8917   -6831.6181   -154.68281    35131.234 
   43800    298.75394    -11101.13    2389.2943   -6820.3531    1448.8713    35230.165 
   43900     299.2174   -11122.565    2414.6986   -6813.4494   -521.70559    35271.231 
   44000     305.6005   -11138.881     2365.548   -6838.5029    1071.8314    35085.015 
   44100    301.75969   -11142.338    2377.4085   -6854.4159   -821.42402    34923.964 
   44200    296.01323   -11138.062    2414.7438   -6849.1872    323.47325    35019.403 
   44300    295.76916   -11138.059    2417.2371    -6848.236   -536.99819    35131.899 
   44400    291.49364   -11070.495    2407.1155   -6817.8632    188.39176    35493.912 
   44500    306.66954   -11138.568    2369.4792   -6827.4902   -268.50407    35091.996 
   44600    299.77621   -11091.027    2390.1513   -6802.9201    277.78222     35420.76 
   44700    300.64705   -11136.637    2394.0964   -6839.0722   -904.92768    34986.719 
   44800    303.08594   -11134.194     2373.417   -6841.8673    29.106842    35156.413 
   44900    299.56757   -11079.249    2360.9949   -6821.6198   -625.53273    35563.817 
   45000    306.36415   -11159.692    2352.8749   -6867.1517    61.785607    34861.299 
   45100    294.54601   -11097.061    2400.8492   -6831.3703   -673.43488    35265.888 
   45200    300.69544   -11132.537    2398.2904   -6830.4718   -94.964283    35072.493 
   45300    298.78648   -11055.232    2396.2764   -6767.2664   -1147.7055    35775.974 
   45400    300.56802   -11130.284    2408.8434   -6818.4726   -337.03507    34972.762 
   45500      303.469   -11092.741    2377.0832   -6794.3227   -4.9185685    35368.744 
   45600    311.58433   -11152.004    2340.0036    -6839.285   -371.37286    34867.114 
   45700    299.52388    -11041.94    2395.2525   -6750.3296   -741.39467    36039.724 
   45800    305.42416   -11117.827    2391.2408    -6792.872   -899.90355    35332.053 
   45900    302.44068   -11119.956    2407.5254   -6797.6062    488.58964    35362.832 
   46000    297.76725   -11088.539     2408.859   -6794.4437   -615.13888    35552.579 
   46100    300.26142   -11067.086    2376.9315   -6789.1276   -138.91072    35565.598 
   46200    302.25695   -11130.538    2399.4983   -6817.3781     401.6815    35082.841 
   46300    310.41509   -11155.973    2354.0024   -6836.6575    386.48247     35038.85 
   46400    303.29374   -11138.317     2389.105   -6828.9861    116.76913    35356.193 
   46500    295.50351   -11091.834    2413.2213   -6807.7093   -470.06097    35783.478 
   46600    300.94077   -11096.369    2374.1844   -6816.8559    109.82537    35696.572 
   46700    292.61597   -11088.439    2426.9156   -6808.9009    395.93921    35727.881 
   46800     300.6105   -11113.086    2387.9485   -6821.9002    786.15622    35523.937 
   46900    297.78554   -11081.969    2386.2771   -6810.3399    312.80637    35609.756 
   47000    301.21909   -11055.417    2369.8617    -6778.465    921.61116    35850.107 
   47100    297.62618   -11067.585    2419.1079   -6764.1344    488.03814    35823.511 
   47200    298.30221   -11068.348    2415.8878   -6763.8368    230.70224    35828.725 
   47300    299.76442   -11093.309    2381.4054   -6814.0228    -320.4184     35409.35 
   47400    294.70998    -11073.44    2431.1455   -6776.4146   -187.62942    35916.796 
   47500    300.53434   -11104.194    2393.7511   -6807.6873    471.91226    35628.052 
   47600    295.86928   -11114.916     2408.853   -6832.8432   -94.577193    35456.169 
   47700    292.37946    -11057.78    2403.9986   -6802.6569    415.59893    35869.276 
   47800    304.27569    -11049.28    2346.2161   -6776.6216   -287.94471    36076.843 
   47900    297.51828   -11011.514    2399.4512   -6728.4026   -283.62308    36510.301 
   48000    304.12004   -11057.738    2400.4478   -6731.8331    -591.3846    36123.633 
   48100    301.96031   -11047.046    2387.2633    -6747.999    561.37534    35985.727 
   48200    299.63641    -11036.32    2396.7792   -6742.4703    -462.6721    36108.133 
   48300    300.26561   -11106.368    2416.5687   -6788.7457    57.394118    35546.939 
   48400    297.23615   -11125.327    2430.4165   -6813.0369   -77.496464    35417.444 
   48500    299.09127   -11116.787    2396.1027   -6827.0658    239.81966    35375.311 
   48600    301.75402   -11130.893    2387.8118   -6832.6043   -651.45042    35315.013 
   48700    291.36456   -11045.334    2411.9091   -6788.7252    172.84015    35792.397 
   48800    302.89577   -11074.087    2389.5565   -6766.8242    311.22552     35771.22 
   48900    302.92632   -11074.006    2392.2079    -6763.899    737.34934    35737.968 
   49000    301.08718   -11054.722    2416.0493    -6732.417    209.66207     36125.51 
   49100    300.25239   -11051.114    2419.6098    -6730.534    49.940512     36161.28 
   49200    299.18654   -11062.926    2424.1695   -6744.5343    268.43718    36023.482 
   49300    302.80122   -11031.619    2385.4848   -6729.0266    349.21834    36365.082 
   49400    306.11979   -11109.461     2392.964   -6778.3787    215.79221    35795.321 
   49500    297.96293   -11089.474    2400.8079   -6802.1911    36.955922    35779.518 
   49600     297.7991    -11076.08     2401.723   -6788.9196   -340.74206    35939.897 
   49700    306.88521   -11097.919     2360.872   -6794.0834    24.285526    35816.697 
   49800    300.47509   -11074.532    2391.4701   -6780.6823   -500.90815    35999.887 
   49900    303.19711   -11107.632    2401.5618   -6786.4568    50.538203    35905.386 
   50000    300.17762    -11074.93    2393.4428   -6780.9901   -536.68901    35961.128 
   50100    304.36755   -11136.443    2391.7613   -6817.6578    410.51857    35483.081 
   50200    294.70863   -11118.886     2430.502   -6822.5125    176.36511     35551.74 
   50300    301.08191   -11105.035     2378.103   -6820.7103    26.953486    35634.275 
   50400    303.64086   -11139.899    2397.9642   -6819.5115    -823.4222    35614.899 
   50500    299.83033   -11101.557    2407.7349   -6795.5245    395.07194    35932.127 
   50600    301.99533   -11142.356    2411.0285   -6819.3223   -336.94114    35516.465 
   50700    298.83577   -11129.099    2413.3568   -6823.7409   -128.13958    35577.695 
   50800    297.44694   -11085.354    2386.4273   -6815.7188    127.66416    35761.379 
   50900    302.49311   -11080.654     2378.731   -6786.7666   -345.58551    35879.852 
   51000    301.69005   -11081.235    2395.7563    -6775.406    104.05478    35736.242 
   51100    301.68007   -11127.892    2410.9076   -6806.9756    291.66501    35308.482 
   51200    304.94717    -11096.54    2366.9488   -6798.8973    132.75315    35563.184 
   51300    303.26695   -11122.064    2391.5937   -6810.4145    -176.6924    35550.188 
   51400     304.5283   -11109.079    2368.6978   -6812.3392    528.65862    35658.147 
   51500    299.19985   -11126.749    2388.6724   -6843.7703    686.65821    35264.501 
   51600    294.68709   -11106.813    2423.5129   -6817.5649    295.98402    35471.237 
   51700     300.6507   -11125.585    2406.0847   -6816.0084   -267.48837     35390.11 
   51800    303.74597    -11112.75    2384.2488    -6805.412   -367.65774    35511.284 
   51900    298.35543   -11098.711    2432.5743   -6777.1767    778.60148    35805.024 
   52000    307.63307   -11136.613    2373.2728   -6815.6415    708.88737     35322.83 
   52100     306.1182   -11119.742    2375.0249   -6806.6092    154.30163     35550.65 
   52200    301.41665   -11080.747    2398.3101   -6774.0952   -62.264796    35956.944 
   52300    293.54366   -11099.722    2452.5462   -6788.6801    333.03883    35747.689 
   52400    299.84465   -11080.963    2403.1978   -6779.3766    661.61646    35974.487 
   52500    299.33364   -11052.655    2389.2874   -6768.2142    502.45559    36119.936 
   52600    303.77567   -11069.901    2378.7332   -6767.8911    835.53135    35970.669 
   52700    297.48786   -11089.901    2430.1444   -6776.2893    349.43101    35892.434 
   52800    301.19828   -11106.338    2410.2533   -6789.1259   -67.819469     35838.57 
   52900    294.69807   -11104.064    2428.2206   -6810.0389     73.60224    35709.413 
   53000    296.93007   -11119.281    2417.8357   -6821.5096    1379.8055    35535.612 
   53100    301.21361   -11098.779    2372.5685   -6819.1542    834.83509    35506.434 
   53200    298.35013   -11116.923    2437.4584   -6790.5379    478.60078    35769.701 
   53300    303.39389   -11115.687     2388.224   -6806.6034    510.12312     35684.36 
   53400    303.93004    -11102.79     2381.813   -6796.7226   -25.049643    35918.235 
   53500    298.51397    -11039.18    2392.2531    -6756.963    -555.7133    36470.575 
   53600     296.4025   -11088.545    2434.0822    -6777.867    325.24131    36018.049 
   53700    301.94067   -11058.697    2384.0251   -6763.0131   -291.79205    36163.813 
   53800    302.14472   -11018.642    2385.1632   -6720.5282   -274.03563    36617.861 
   53900    295.35352   -11023.782    2428.4873   -6725.3405    153.11862    36329.194 
   54000    303.63307    -11074.45    2414.6073   -6737.4685    273.18876    36108.241 
   54100    303.71221   -11069.947    2401.3922   -6745.6799   -184.96668    36143.265 
   54200    298.46412   -11056.571    2413.6583   -6753.2645    150.83997    36076.811 
   54300    304.39109   -11068.087     2387.634   -6753.2801   -111.90752    36080.772 
   54400    299.51686   -11068.633    2405.5311    -6766.789    17.097364    35912.058 
   54500    299.32047   -11092.293    2417.7401   -6779.4832   -79.378636    35757.911 
   54600    298.64962   -11080.636    2400.4685    -6789.345    994.56086    35765.811 
   54700    297.96054   -11075.039    2408.6276   -6779.9516   -2.1922745     35851.41 
   54800    297.68494   -11115.528    2423.8977   -6806.9149     161.8288    35337.973 
   54900    301.52624   -11097.232    2406.7648   -6781.4322   -571.87151    35711.286 
   55000    301.98159   -11075.763    2392.2587    -6771.586   -514.25901    36072.855 
   55100    297.26082   -11050.047    2404.1806   -6763.8367   -216.71916    36206.381 
   55200    301.47924   -11099.728    2400.2874   -6790.7028   -165.86719    35787.292 
   55300    301.73868   -11102.172    2379.6305   -6812.1612   -78.600928    35626.839 
   55400    297.53372   -11048.726    2394.5467   -6770.4219    89.217887    36145.959 
   55500    300.15173   -11066.882    2388.1176   -6778.4315    -290.6338    35921.283 
   55600    305.24544   -11123.042    2385.1331   -6805.3261   -552.49442    35587.433 
   55700    298.72577    -11052.69    2398.9658   -6762.4197   -389.44111    36205.909 
   55800    305.88511   -11071.906    2360.4825   -6774.7909    -963.0366    36025.267 
   55900    305.00754   -11110.415    2374.8229   -6804.5164    777.77156    35540.673 
   56000    299.86276   -11093.284    2410.4813   -6784.2997   -551.05258    35900.645 
   56100    297.20917   -11056.685    2404.3624   -6770.6196    789.39629    36136.525 
   56200    296.95837   -11059.189    2412.3645   -6766.7092   -488.81239    35991.298 
   56300    294.76948   -11065.275    2435.3667   -6763.6514    726.64901    35889.212 
   56400     299.5556    -11073.74    2425.8668   -6751.3147   -1079.7497    36153.823 
   56500    304.55467   -11079.731     2399.843   -6751.6789    810.80981    36241.281 
   56600    302.50195   -11109.259    2395.5902   -6798.4563     147.7907    35848.256 
   56700    294.30385   -11093.861    2440.0971   -6790.4553    147.93424     36003.15 
   56800    297.75263    -11040.11    2388.1194   -6766.8475   -245.50818    36280.785 
   56900    300.15884   -11067.695    2396.5147   -6770.8021    102.30996    35963.083 
   57000    302.40378   -11073.921     2406.338   -6752.9918   -889.33928    36111.518 
   57100    306.06556   -11122.126    2398.6401   -6785.7112   -246.43473    35871.174 
   57200    299.34712   -11048.666     2404.496   -6748.9313    166.66341    36496.869 
   57300    301.07202   -11064.041    2396.6198   -6761.2613   -116.31337    36246.524 
   57400    294.51783   -11034.301    2414.1365   -6755.5011    787.54967    36312.265 
   57500    308.06885   -11038.043    2360.5067   -6727.0786   -963.00296     36484.04 
   57600    309.57051   -11045.916    2368.2283   -6717.7222    107.09492    36541.687 
   57700    301.46543   -11062.777    2402.4344   -6751.6928   -579.26092     36083.05 
   57800    299.90235   -11053.187    2412.6913   -6741.7415    369.84753    36317.839 
   57900    297.80973   -11053.667    2422.6209    -6745.541   -646.89263    36295.089 
   58000    297.96285   -11026.326    2402.0503   -6737.8013    1476.8497    36441.231 
   58100     299.8648   -11034.891    2385.8101   -6750.5652   -398.85158    36215.527 
   58200    299.13295   -11088.343     2420.826   -6773.6342    478.82535    35968.321 
   58300    299.56401    -11100.21    2394.5194   -6809.0787     413.8831    35785.261 
   58400    296.62868   -11090.567    2394.4807   -6818.0589    617.18855    35747.292 
   58500    292.56281   -11041.824    2423.6333   -6765.9057   -511.71352    36377.352 
   58600    303.58777   -11084.611    2368.0628   -6794.4607    323.70487    35831.327 
   58700    297.06339   -11110.115    2422.7581   -6806.5769   -340.25299    35688.828 
   58800    293.34334   -11094.784    2436.3157   -6801.2411   -233.71954    35858.768 
   58900    308.72489   -11127.324    2351.2537   -6821.4582    238.28856    35613.959 
   59000    307.04159   -11116.846    2349.3535   -6823.5384   -155.47493     35737.98 
   59100    302.78172   -11088.849    2365.9652   -6805.8995   -229.05375    36018.984 
   59200    296.25503   -11080.252    2409.3671   -6795.2226   -125.74481    36050.249 
   59300    290.37829   -10991.977    2432.1932   -6721.3286    -156.3635    36799.231 
   59400    297.05925   -11090.059    2447.8615   -6761.4438    -587.0013     35935.22 
   59500    296.19821   -11032.362    2422.7563   -6734.3035   -96.282081    36244.339 
   59600    298.96936   -11059.353    2436.9231   -6729.5828   -346.59352    36190.622 
   59700    297.01887    -11070.54    2443.8572   -6746.1854    547.21053     36184.85 
   59800    298.84662   -11088.917    2426.4241   -6770.4228   -765.54131    36003.625 
   59900    305.77844   -11102.469    2388.0148   -6778.4976    366.43033    35981.224 
   60000     297.8695   -11056.374    2399.1457   -6771.3446   -751.64319    36265.118 
   60100    306.29674   -11109.144    2364.8575   -6805.0481    375.07464    35827.385 
   60200    295.66437   -11053.878    2403.7211    -6778.235    -586.1681    36250.958 
   60300    294.60019   -11050.407     2392.795   -6792.4269    1265.3546    36049.743 
   60400    295.67157   -11062.075    2436.2699   -6753.8369   -743.25414    36228.237 
   60500    300.43886    -11071.54    2414.9084   -6754.4808    1187.9517    36109.427 
   60600     295.4012   -11046.161    2418.3917   -6757.5135   -590.33308    36133.999 
   60700    295.68363   -11120.567    2465.3919   -6783.1311    202.86033    35645.489 
   60800    301.14399   -11058.161    2400.9314   -6750.6146    -534.7448    36183.137 
   60900    302.60389   -11092.041    2405.5043   -6770.6785    560.60726    35918.793 
   61000    302.15536   -11092.127    2393.3778   -6785.7306   -20.121425    35815.718 
   61100    301.81386    -11097.46    2387.4344     -6799.17    239.38255    35689.786 
   61200     298.9712   -11068.748    2398.6191   -6777.2701    488.30166    35988.163 
   61300    303.99992   -11063.463    2371.3761   -6767.3899    230.48763    36085.915 
   61400    302.70689   -11032.586    2379.8673   -6736.2083   -81.948005    36228.773 
   61500    304.28648   -11051.371    2394.5616   -6730.2986   -17.615811    36079.372 
   61600    303.81624   -11048.913    2380.4802   -6744.8987    695.41567    35887.231 
   61700    309.84532   -11074.242    2354.2654   -6758.2709    249.46576    35846.699 
   61800    305.14917    -11040.24    2376.1697   -6732.0973    240.76133    36264.748 
   61900    301.82616   -11065.063    2389.8895   -6764.2396   -157.81393    35893.272 
   62000    298.32888   -11046.299    2417.0121   -6740.4954     367.0598    36272.768 
   62100    298.09776   -11040.929    2424.3161   -6729.2843   -480.36884    36357.442 
   62200     296.1746   -11083.486     2427.313   -6781.0205    350.52467      35773.9 
   62300    297.30534   -11093.294    2407.8068   -6803.1752   -1132.8738    35637.113 
   62400    300.90811   -11082.297    2389.7183   -6787.4573   -93.215204    35854.398 
   62500    299.13123   -11079.214    2415.8127   -6769.5299   -31.027428    35968.871 
   62600    301.35373   -11011.068    2376.1234   -6727.0019    314.78219    36438.016 
   62700    303.10826   -11046.268    2402.6288   -6724.5881   -182.90366    36273.995 
   62800    305.21563   -11046.746    2377.6702   -6736.6825     367.1086    36125.563 
   62900    300.04559    -11015.06    2388.0861   -6727.3129    409.02711    36318.171 
   63000    298.16453    -11031.03     2413.769   -6729.5091   -360.92956    36190.228 
   63100      303.443   -11056.369    2406.1053   -6729.0929    225.25905    36144.954 
   63200    300.81183   -11099.812    2423.7331   -6771.5669    -588.7154    35831.875 
   63300    299.53039   -11094.169    2408.5911   -6789.1789    496.24187     35819.18 
   63400    300.66331   -11091.604    2382.5518     -6805.48   -104.34127    35831.218 
   63500    295.16302   -11076.688    2404.3643   -6803.5757    515.72108    35818.694 
   63600    292.31633    -11059.56    2427.8427   -6780.9921    14.493552     36027.44 
   63700    296.42016   -11104.361    2422.6372   -6805.0167    660.12059    35712.328 
   63800    295.68061   -11039.822    2402.9709   -6764.8258   -547.65528    36331.999 
   63900    301.74729    -11033.73    2376.8538   -6746.4411    397.03666    36388.337 
   64000    302.46251   -11057.946    2372.8357   -6770.1472   -463.57378    36006.723 
   64100    308.39842   -11111.373    2357.0571   -6801.7709    478.94856    35700.556 
   64200    300.22679   -11052.242    2360.3767   -6791.0572    145.26263     35955.31 
   64300    295.07843   -11040.554    2407.7497   -6764.5913     385.0725    36005.351 
   64400    296.93275   -11068.449     2435.325   -6753.1715   -535.96992    35941.314 
   64500    299.30926    -11069.83    2415.9347   -6758.8962    539.53048    35750.809 
   64600     303.4321   -11047.257     2383.814   -6742.3409   -52.958537    36020.998 
   64700    294.13113   -11061.818    2439.9639   -6759.6388   -1.2240039    35890.218 
   64800    305.71067   -11051.277    2368.4131   -6747.3365   -166.77824    36148.148 
   64900    304.27261   -11064.076    2360.7398   -6776.9131    635.07122    36037.314 
   65000    296.69017   -10997.685    2379.1611   -6740.1069    192.81966    36601.904 
   65100     299.6209   -11062.131    2400.8023   -6764.3564    349.35631    36035.376 
   65200    296.72257   -11056.018    2407.2937   -6770.1026    218.13455    35978.952 
   65300    298.96537   -11041.822    2370.6269   -6778.3736   -200.11726    35954.861 
   65400    297.56123   -11021.602    2380.2205   -6757.4496   -233.77506    36072.284 
   65500    302.39293   -11072.701    2400.2684   -6757.9104   -80.897882     35888.37 
   65600    299.25376   -11090.117    2411.7129    -6783.757    1087.6375    35692.703 
   65700    303.96402   -11071.736    2365.3951   -6781.8719     209.1864    35926.887 
   65800    303.37982   -11039.013    2341.9816   -6776.2607    423.79177    36159.213 
   65900    304.49986   -11055.944     2349.735   -6778.3472    932.34981    35990.925 
   66000    300.26405    -11039.84    2384.5326   -6754.2635    117.01768    36322.037 
   66100     294.7983   -10988.643    2399.9731    -6722.231    3.4663012    36738.648 
   66200    301.92212    -11052.32    2387.6663   -6753.1118   -648.55064      36146.7 
   66300    292.44725   -11016.386    2397.2968   -6767.5356    148.38761    35963.711 
   66400    299.54929    -11074.75    2392.1276    -6786.104   -229.25134    35665.567 
   66500    296.93501   -11078.828    2406.4854   -6792.3752    334.63227    35636.825 
   66600    293.88313   -11071.649    2424.2724   -6786.7314    96.559378    35693.609 
   66700    295.10585   -11068.885     2417.742   -6782.7569   -170.09504    35699.851 
   66800    302.11967   -11114.318    2412.4671   -6789.0589   -594.88231    35563.186 
   66900    298.56533   -11068.038    2390.5276   -6787.2215   -371.80151    35804.932 
   67000    299.20657   -11079.461    2386.9736   -6798.1382   -374.80707    35747.341 
   67100    303.64891   -11116.085    2373.2731   -6820.3375    529.38378     35389.34 
   67200    298.34383   -11133.304    2413.1185   -6831.2986   -703.49893    35307.021 
   67300    297.38095    -11158.01    2442.8126   -6832.4075   -647.92966    35329.176 
   67400    299.76062   -11133.099    2398.2813   -6836.9615   -595.11828    35650.782 
   67500    290.41925   -11070.216    2392.2467   -6839.2551    171.00742    35743.055 
   67600    298.84338   -11139.161    2400.5665   -6846.5453   -423.10396    35282.552 
   67700    297.25657   -11037.169    2389.2682   -6765.8982    359.57753    36231.294 
   67800    296.48598   -11031.269    2409.5156   -6744.6291    137.04891    36273.285 
   67900    302.93357   -11099.303    2417.9635   -6763.3941    32.646129    35852.683 
   68000    308.92699   -11077.512    2353.9214   -6767.6994    346.66988    36058.467 
   68100    293.79647   -11050.426    2418.2952   -6772.0347    69.887822    36182.573 
   68200    302.13291    -11022.04    2374.7743   -6734.3894    643.21705    36510.587 
   68300    307.53137   -11048.261    2348.7973   -6752.4085    436.22229    36065.048 
   68400    301.06665    -11029.81    2387.1848   -6736.4998    193.60145    36277.101 
   68500    302.62544   -11046.015     2397.745   -6732.2757   -486.68949     36380.64 
   68600    298.42658   -10987.597    2389.8398   -6708.3463    959.08468    36684.367 
   68700    303.03254   -11062.602    2407.1142   -6736.9154    268.59005    36220.556 
   68800    291.11172   -10984.828    2433.7158   -6708.0135    458.88848    36787.662 
   68900    299.58797    -11016.62    2403.3153   -6716.5411   -232.05266    36515.907 
   69000    300.40133   -10983.563    2388.6494   -6693.0004    345.71918     36690.43 
   69100    306.99887   -11058.924    2383.2312   -6732.0093     804.8609    36189.544 
   69200    301.00097   -11058.749    2409.1068   -6743.9327    326.57747    36288.055 
   69300    296.59086   -11036.994    2388.1554   -6771.0508     644.3174    36080.902 
   69400    299.99674   -11062.238    2389.7909   -6773.0955     407.9482     36005.42 
   69500    299.40557   -11041.561    2379.9863   -6765.9664    712.36477     36093.34 
   69600    301.46169   -11105.045    2405.5076   -6790.9112    1092.7852    35539.298 
   69700    291.95835   -11046.432     2437.619   -6760.3545    689.47862    35910.762 
   69800    299.15889    -11091.35    2408.9666   -6788.3367   -92.296189    35515.504 
   69900    303.03406   -11085.447    2378.4689   -6788.3961    601.63885    35718.565 
   70000     296.1952   -11038.738    2399.6428   -6763.8121    227.74497     36142.19 
   70100    296.73647   -11058.899    2402.6053   -6777.5839    616.50533    35813.236 
   70200    293.35343   -10993.779    2415.9936   -6720.4947   -168.43107    36394.059 
   70300    292.24595   -10999.459    2447.9083   -6701.2715    127.04242    36503.845 
   70400    299.90666   -11035.921    2427.7999   -6709.3394   -696.02613    36332.284 
   70500    303.37865   -11057.893    2398.6347   -6738.4951    62.589464    36151.908 
   70600    298.35292   -11050.938    2410.1297   -6751.8642    315.64603    36166.653 
   70700    293.94845   -11023.364    2428.4298   -6733.8758   -86.679397    36410.961 
   70800    296.78038   -11022.789    2416.2278   -6727.5736   -72.925813    36445.274 
   70900    303.65909   -11035.994     2376.418    -6737.037    335.58895    36341.111 
   71000    303.48542   -10990.465    2358.6091    -6710.417    289.18921    36818.848 
   71100    306.79735   -11061.719    2369.3356    -6749.976     684.5172    36228.314 
   71200     306.3101   -11073.403    2358.9845   -6775.0958    813.14771    36064.661 
   71300    292.33465   -11010.131    2429.7701     -6729.52    261.93608    36811.298 
   71400    297.21061   -11005.077    2380.3831   -6742.9817    278.21467    36512.637 
   71500    298.93806   -10995.144    2405.4763   -6697.0188   -503.01884    36963.483 
   71600    300.13979   -11002.444    2398.6297   -6703.5569    720.89721    36803.896 
   71700    306.06012   -11029.673    2368.8222   -6723.1111    207.59393    36520.425 
   71800    298.53194   -10991.516    2382.5974   -6718.8409    73.536802    36804.188 
   71900    293.67085   -11017.165    2424.5388   -6733.3258   -259.06353    36593.831 
   72000    294.99211    -11035.28    2410.1351   -6757.4786    76.409144    36202.826 
   72100    304.84237   -11072.904     2380.728   -6762.1457     -81.0951     36139.59 
   72200    296.78946   -11045.112    2400.1221   -6765.9446    634.73311    36215.207 
   72300    294.51436   -11041.943    2405.8862   -6771.4156    464.13926    36120.672 
   72400    296.65265   -11005.674     2403.778   -6723.7165   -121.40687    36577.807 
   72500     295.6638   -11043.581      2416.54    -6755.122    241.73866    36027.959 
   72600    310.24914   -11018.799    2330.8182   -6723.7187    709.56605    36463.654 
   72700    309.75951   -11079.542    2364.5681   -6753.8122    277.10037    36120.302 
   72800    300.86535   -11059.477     2390.421    -6764.205   -149.90698    36225.138 
   72900    295.90294   -11041.975    2400.2555   -6768.2867    17.744855    36218.641 
   73000    296.14076   -11070.871    2413.2757    -6782.657    231.41077    35887.562 
   73100    299.69271   -11099.637    2408.5345    -6793.676   -245.74424    35731.311 
   73200    298.88414   -11053.297    2386.2087    -6774.781    630.22784    35991.989 
   73300    301.85942   -11073.228    2385.4274   -6776.6562    504.28165    35857.923 
   73400    299.68507   -10999.247    2392.2278   -6709.6406    231.96809    36611.703 
   73500    298.67601   -11038.925    2423.5622   -6724.3726    91.485371     36249.57 
   73600    310.89985   -11076.019    2373.3869   -6734.2507    533.11287    36127.652 
   73700    303.34749   -11057.155    2413.3827   -6723.2062   -613.90186    36516.851 
   73800    308.73397   -11088.791    2356.0915   -6778.0301    244.47127    36035.582 
   73900    302.80578   -11091.777    2379.8988   -6794.7424    558.58089    36016.139 
   74000    301.13705   -11030.865    2358.3611   -6765.9332    266.82735    36474.492 
   74100    299.68761   -11072.242    2398.3013   -6776.5464   -43.281264    36164.092 
   74200     300.5935    -11028.09    2374.0263   -6750.9337    335.15084    36546.501 
   74300    292.00112    -11016.08     2414.608   -6752.7427    1025.5123    36351.658 
   74400    307.07796   -11025.846    2362.6512   -6719.0108    107.69968    36590.747 
   74500    295.04514   -11016.835    2426.1769   -6722.6559    643.82288    36628.663 
   74600    298.15069   -10987.593    2399.6943   -6700.2353   -37.391043    36964.471 
   74700    298.61332   -11005.297    2415.8363   -6698.8679    705.31278    36903.503 
   74800    294.55762   -10947.894    2417.4314   -6665.5469   -510.08271    37313.279 
   74900     295.8025   -11019.962    2427.3559   -6719.8094    470.57183    36338.617 
   75000    300.51662   -11027.496     2395.537   -6729.3162   -214.77389    36123.898 
   75100    300.29937   -11040.604    2406.6016   -6732.7345   -116.55645    36195.402 
   75200    303.60637   -11088.783    2406.9429   -6759.6352   -286.06986    35940.231 
   75300    302.08971   -11124.471    2411.0724   -6800.7957   -1070.2787    35646.643 
   75400    296.30549   -11137.247    2421.9078   -6839.3581    417.31079    35362.993 
   75500    300.33823   -11146.588    2388.7883   -6856.2862    -37.04992    35328.291 
   75600    296.75815    -11082.19    2397.8628   -6805.4802    877.36675     35995.08 
   75700    297.14601   -11070.726    2404.5145   -6784.9086   -287.07549    36003.007 
   75800    302.79829   -11116.992    2389.4904   -6810.4128    379.12654    35616.824 
   75900    299.54681   -11107.338    2410.0634   -6800.7722   -535.86844    35781.165 
   76000    298.85453   -11103.751    2407.6795   -6803.9513    732.37784    35813.922 
   76100    296.93831   -11076.741    2408.1047   -6788.6482    391.08345    36050.246 
   76200     303.5439    -11078.36    2377.2584    -6779.292    290.10305    36033.693 
   76300    300.61449   -11081.928    2398.9969   -6779.6688    382.68392    35965.569 
   76400    297.20019   -11099.401    2409.6267   -6808.1285    158.71012     35569.07 
   76500    295.09735    -11147.77    2440.8324   -6838.6057    34.922107    35143.291 
   76600    295.99331   -11117.076    2419.7496   -6823.3213    62.091141    35451.608 
   76700    307.84429   -11122.116    2367.9564   -6805.1231    639.16271    35636.147 
   76800    296.75568   -11139.162    2415.1297    -6845.201    1224.9996    35381.084 
   76900    294.54697   -11121.064    2428.0779   -6828.1381     15.21792    35616.852 
   77000    296.77966   -11147.262    2416.1065   -6852.1722    249.13008    35203.175 
   77100    302.78334   -11131.099    2380.8331   -6833.2717    614.95038    35370.479 
   77200    296.53785    -11125.37    2413.0176   -6834.9001   -345.68729    35408.662 
   77300    294.44543    -11086.94    2404.7537   -6817.9813    452.95186    35578.482 
   77400      294.826   -11077.515    2412.6251   -6798.2753    371.39861     35623.32 
   77500    298.76283   -11103.453    2406.1754   -6805.7378    541.07318    35438.161 
   77600     306.4461   -11088.189    2369.3059    -6778.699   -25.929728    35929.553 
   77700    299.25511   -11072.353    2390.8162   -6786.8807    23.168357      36078.4 
   77800    294.01698   -11040.294    2402.1424   -6776.6595    -978.1759    36210.815 
   77900    297.60318   -11075.871    2404.9142   -6786.7591   -218.80526    36048.361 
   78000    291.72463   -11071.087    2453.6616   -6770.4469   -670.15092    36396.336 
   78100    299.85558   -11044.624    2367.9901   -6778.1759   -89.942079    36362.617 
   78200    298.62489   -11007.276    2375.6975   -6740.9121   -1080.5222    36681.668 
   78300    302.14908    -11064.97    2386.2988   -6765.6929    236.09338    36043.154 
   78400     298.6707   -11053.516    2417.1886   -6745.3715   -287.37328    36383.446 
   78500    303.98818   -11043.095    2368.2987    -6750.174   -228.54721    36525.364 
   78600    299.90606   -11029.235    2380.7166    -6749.741   -524.33078    36557.954 
   78700    300.03934    -11055.61    2396.7289     -6759.26   -525.71443    36303.636 
   78800    296.49513   -11036.614    2398.4054   -6761.0265   -550.86325    36278.049 
   78900    300.79634    -11042.39    2380.0396   -6757.9361   -60.452917    36165.421 
   79000    300.30101   -11057.706    2400.9976   -6755.4303   -469.76736    36193.134 
   79100    301.57302   -11065.349    2376.5893   -6779.4285   -826.15666    36058.755 
   79200    304.51628   -11021.947    2351.4402   -6742.5407   -263.25281    36551.139 
   79300    304.92777   -11024.681    2367.3106   -6726.7996   -1145.7542    36649.694 
   79400    292.97188    -11030.51    2420.7399   -6754.8947    19.020738    36231.205 
   79500    298.39791   -11023.004     2401.279   -6732.4965   -306.53036    36394.814 
   79600    298.47885    -11054.26    2429.0422   -6735.4759    573.71821    36322.525 
   79700    299.23147   -11002.541    2388.3213   -6719.7134   -410.90835    36668.139 
   79800    301.46981   -11071.762    2412.3619   -6750.7222    130.15376    36157.437 
   79900    298.73412   -11045.796     2398.962   -6755.4768   -441.73163    36301.263 
   80000    299.93496   -11062.441    2386.7697    -6776.711   -81.280008    36189.023 
   80100    295.15117   -11046.427    2383.3694   -6794.3848    31.221086    35992.495 
   80200    296.53765   -11085.535    2417.5692    -6790.515    1132.2518    35799.177 
   80300      302.938   -11008.451     2358.029   -6732.4486    218.25318    36510.473 
   80400    289.74864   -11042.395    2448.0933   -6759.8337   -96.608177    36098.362 
   80500    299.38234   -11027.635      2404.15   -6728.0237   -371.71018    36447.146 
   80600    301.17181   -11029.175    2388.3544   -6734.0291     350.2819    36377.838 
   80700    296.98516   -11029.585    2418.3177   -6730.9832    225.58084     36464.34 
   80800    301.90366   -11030.732    2389.1085    -6730.199   -199.31722    36556.082 
   80900    299.14746   -10993.704    2378.2834   -6721.4461    203.99472    36767.286 
   81000    302.63775   -11049.549    2377.2044   -6756.2726    92.564582    36173.862 
   81100    303.59529   -11107.162    2389.1315   -6795.8954    147.67673    35633.115 
   81200    302.05665   -11120.073    2392.2782   -6815.4013    226.37188    35662.939 
   81300    295.98375   -11028.827    2382.4597   -6772.4227    503.75798    36364.628 
   81400    299.00367   -11119.682    2414.3068   -6812.3108     220.0871    35667.834 
   81500    300.35584   -11053.503    2368.4058   -6783.4722    911.29602    36074.309 
   81600     298.2905   -11068.544    2408.4884   -6771.5069   -374.20699    36081.247 
   81700    302.69405   -11054.318    2380.5756   -6757.3132   -278.93505    36254.826 
   81800    298.66881   -11094.246    2417.7512   -6785.5506   -391.83842    35876.969 
   81900    289.89504   -10999.521    2429.2838   -6734.8415    349.19024    36439.706 
   82000    302.96281   -11110.361    2418.5822   -6773.6486   -660.33055    35699.206 
   82100     299.5548   -11027.122    2409.9508    -6720.618    -370.7113    36574.679 
   82200    306.88833    -11076.13     2370.429   -6762.7174   -103.60648    36010.171 
   82300    300.44999   -11040.415    2388.2777   -6749.9159   -213.67934      36291.8 
   82400    301.57562   -11072.808    2391.3909   -6772.0691   -17.140343    35991.237 
   82500    301.06103   -11017.738    2367.6549   -6743.9933   -845.16356    36501.977 
   82600    298.39881   -11039.352    2401.5672   -6748.5498    444.41128    36231.634 
   82700    301.78852    -11084.64    2405.4597   -6768.4845   -103.73865    35845.788 
   82800    298.02412   -11051.672    2415.8395   -6748.9697    142.89273    36101.617 
   82900    306.40986   -11070.431    2380.9273    -6749.549   -18.806615    36055.301 
   83000    305.98558   -11095.817    2397.1123   -6761.4367    789.94848    35908.468 
   83100    300.91651   -11013.589    2372.6508   -6735.7634     108.8143    36324.476 
   83200    306.91472   -11068.892    2383.6903   -6742.0511    416.66909    36099.307 
   83300    297.14064   -11012.976    2411.7183   -6719.9889    582.17497    36544.303 
   83400    296.19541   -10963.641    2397.0408   -6691.3156    190.55416    36991.012 
   83500    302.59996    -11022.32      2373.93   -6732.5573    621.86301    36252.938 
   83600    302.95801   -11025.028    2380.3111   -6726.6171    217.21812    36212.863 
   83700    299.51084   -11045.437    2416.8969   -6732.2644   -55.798707    36134.299 
   83800    293.21663   -11003.447    2435.8882   -6711.1338   -313.67749    36503.104 
   83900    296.39179   -11060.899    2439.7825   -6744.5888     387.6682    36028.145 
   84000    305.13268   -11090.423    2378.9861   -6779.5683    218.87164    35804.266 
   84100    297.89464   -11055.765    2388.1805   -6781.5416    337.10641    35936.404 
   84200    295.18699   -11024.078     2418.487   -6736.6911   -281.59693    36417.343 
   84300    301.85089   -11052.518    2376.9179   -6764.5095      788.838     35863.25 
   84400    301.12381   -11005.965    2387.6913   -6711.7862   -593.04869     36426.71 
   84500    309.29664   -11038.868     2393.231   -6687.4055   -154.61611    36558.782 
   84600    303.41739    -10994.82    2385.6218   -6688.1896    20.241091    36791.579 
   84700    294.16992    -11029.71    2458.7624   -6708.4874    333.41262    36644.775 
   84800    297.62811   -10949.553    2398.8556   -6666.3424    197.89011     37245.89 
   84900    300.54246   -11004.512    2404.6909   -6697.0145    317.58674    36783.986 
   85000    299.80108   -10966.852    2391.9544    -6676.785   -459.57793     37242.96 
   85100     307.2272   -10998.747    2361.4403   -6692.1772   -120.80942    36921.974 
   85200    298.00648   -10973.811    2400.5714   -6686.4891    57.426594    36927.368 
   85300    299.05185   -11014.345    2421.3463   -6699.6294   -170.24848    36651.449 
   85400    306.03333   -11020.327      2387.36   -6695.3968    276.66469    36924.042 
   85500     297.0972   -11024.888    2399.7637    -6744.131    103.07275    36479.577 
   85600    294.97372   -11001.858    2416.9939   -6717.3142    297.56961    36715.359 
   85700    300.52033   -10989.536    2407.7746   -6679.0953    -21.19219    36965.509 
   85800     302.3611   -10994.676    2395.9965   -6684.3584    58.432991    36924.958 
   85900    308.25439   -11018.738    2367.0623   -6700.0431   -374.42303    36781.179 
   86000    300.19585   -10959.669    2386.1813   -6672.8756   -44.151132    37279.656 
   86100     297.5847   -10955.496    2412.8009   -6658.6143    23.280301    37364.706 
   86200    296.85676   -10975.425    2432.3236   -6663.6295   -255.20863    37086.598 
   86300    299.23754   -10998.586    2405.4452    -6698.596   -92.414988    36634.069 
   86400    299.93992    -11002.24    2401.9139   -6701.3339    505.51106    36648.927 
   86500    305.79915   -11034.427    2366.6269   -6731.7125    37.816063     36365.39 
   86600    300.62388   -10990.418    2384.4131   -6702.6828   -73.636969    36762.765 
   86700    290.76221    -10982.77    2442.6393   -6699.2447   -461.50435    36694.479 
   86800    296.55314   -10946.701    2431.0088   -6638.1426   -379.47104    37391.569 
   86900    306.45656   -10986.555    2381.1174   -6665.1877    -19.03911    36966.837 
   87000    316.06829   -11036.303    2323.3084   -6711.8899    514.20963    36511.091 
   87100    296.92771   -11009.096    2405.0065   -6724.1689    85.223495    36582.809 
   87200     299.1492   -10967.694    2376.4055   -6697.3027    210.57175    37038.601 
   87300    301.45573   -11023.981    2400.9791   -6714.4131    350.28204    36731.377 
   87400    301.78047   -11012.495    2386.2418   -6715.6083    199.89438    36841.951 
   87500    299.55648   -11030.407    2396.0741   -6737.7687     254.8148    36606.504 
   87600    305.00404   -11067.306    2386.7496   -6749.5026    55.086402    36332.981 
   87700    297.97044   -10995.409      2390.36   -6718.5263   -98.223927    36786.176 
   87800    301.01349   -11062.238    2403.6932   -6752.7564   -390.12219    36193.068 
   87900     300.0931   -11006.868    2396.4008    -6710.506   -585.76182    36916.529 
   88000    304.33718   -11029.889    2360.4459    -6742.611    69.511442     36515.26 
   88100    301.12823   -11036.639    2397.5999   -6732.5243   -343.69107    36664.315 
   88200    298.97772   -11016.476    2397.8213   -6725.7551     108.3755    36816.016 
   88300    297.85836   -10991.363    2393.1789   -6712.3709    109.49751    36954.486 
   88400     297.9873   -10985.665    2394.2009   -6704.8351    294.61743     36775.19 
   88500    304.89096   -11010.413    2378.2533   -6701.8217    164.78229    36708.117 
   88600    303.04658   -10975.709    2377.5771    -6679.471    436.23111    37024.884 
   88700    292.18398   -10961.368    2434.6661   -6676.8152   -274.20853    37009.315 
   88800    297.56871   -10941.812    2413.3321   -6644.5011    464.10631    37278.815 
   88900    301.89064   -10988.619    2400.1919   -6677.0851   -303.82438    36816.103 
   89000    297.60639   -11027.781    2420.3268   -6723.2367    295.92946    36270.117 
   89100    301.41031   -11026.182    2382.9228    -6734.958    742.29636    36277.013 
   89200    300.17629   -11012.792    2394.0379   -6718.2655   -6.2771245     36498.31 
   89300    296.46298   -10922.163    2381.4572   -6663.7278    177.06874    37251.726 
   89400    300.44169    -10954.96    2368.7368    -6684.055    883.78411    36825.752 
   89500    299.04466   -10953.163    2408.2064   -6651.6331    305.94332    37146.836 
   89600    296.56957   -10915.735    2400.3438   -6637.7382    340.80965    37412.664 
   89700    308.22294   -11010.165     2361.872   -6696.8596    533.79585    36621.651 
   89800    300.43619    -10969.17    2379.9107   -6687.1255     163.9489    37027.203 
   89900    297.57698    -10989.71    2406.3175   -6699.3609   -37.342767    36906.995 
   90000    297.35061    -11026.04    2392.1409   -6751.3005   -209.77035     36215.66 
   90100    301.90764   -11006.554    2375.7467   -6719.3577    350.53084    36532.675 
   90200    306.49032   -11019.148    2379.5977   -6699.0864    782.00328    36612.569 
   90300    308.26031    -11023.45    2370.6924   -6701.0877   -187.43709    36591.999 
   90400    297.96727   -11013.478    2414.7639   -6712.2119   -90.956335    36551.489 
   90500    300.61642   -11043.114    2429.6704   -6710.1688   -522.18028    36666.908 
   90600    300.37882   -10997.958    2405.2855   -6690.9022   -301.02766    37037.791 
   90700    295.82776   -10985.915    2418.1753   -6694.7829   -526.72996    36965.834 
   90800    303.34786   -11045.284    2394.9376   -6729.7779    435.61229    36472.771 
   90900    307.33576   -10989.154    2346.6943   -6696.6435    479.19269    37079.014 
   91000    296.81229    -11003.69    2423.9767   -6700.5233    -480.7296    36932.679 
   91100    298.49266    -11000.33    2399.0183   -6711.4825   -730.72776    36683.545 
   91200    295.42775   -11033.523    2434.5389   -6728.5596    -603.3687     36337.82 
   91300    300.10979   -11040.216     2416.586   -6723.5623   -107.74218    36492.728 
   91400     307.9077   -11046.922    2346.1998   -6751.2842   -402.79484    36408.412 
   91500    301.96501   -11018.255     2363.425   -6743.0164    219.43671    36620.892 
   91600    292.12151    -11033.67    2440.2552   -6743.9235    93.970046    36623.609 
   91700    297.93991   -11060.894    2391.5445   -6783.0202    381.35296    36102.846 
   91800    300.50707   -11075.861    2383.9686   -6789.3101     254.2618    35936.306 
   91900    297.33485   -11077.839    2414.5662   -6780.7738    373.03596    35997.617 
   92000    304.22778   -11076.807    2371.5069   -6779.1606    121.89919      36050.1 
   92100    299.49473   -11058.883    2382.4626   -6780.2473   -44.209913    36263.174 
   92200    294.54725   -11011.909    2394.0014   -6753.0582   -147.79545    36693.911 
   92300    298.50042   -10984.025    2377.6709   -6716.4759   0.70583218    36881.473 
   92400    301.63675   -10988.793    2369.8522    -6709.206    779.27095    36728.945 
   92500    310.24029   -11007.147    2348.2553   -6694.6861    241.55468    36759.622 
   92600    297.60249   -10987.115    2424.2088   -6678.7135    264.69702    37045.614 
   92700    302.05122   -11002.219       2379.6   -6710.2603    140.67267    36670.986 
   92800    301.77074   -11020.808    2388.2429    -6721.982     390.8317    36576.528 
   92900     300.2344   -11022.405    2394.9549    -6726.594     277.1039    36577.103 
   93000    302.82724   -11015.087    2385.4912   -6712.3238    332.52141    36676.705 
   93100    299.08409   -11027.216    2403.2567   -6730.3858    992.09058     36402.97 
   93200    304.60789   -11065.435    2396.0946   -6740.7945   -73.395059    36252.906 
   93300    302.65169   -11022.573    2380.8935   -6725.5187     197.4572    36627.003 
   93400    296.55612   -11085.401    2437.7051   -6770.1281   -506.08286    36073.652 
   93500    293.98218   -10991.185    2411.4823   -6718.4308    643.79583    36872.868 
   93600    300.35299   -11043.977    2412.4468   -6729.9232    153.55999    36520.616 
   93700     298.5516   -11000.034     2415.173   -6694.6594    1254.0012    36905.055 
   93800    298.87843    -10997.66    2413.1351   -6692.2535   -153.29672    36786.284 
   93900    306.08048   -11054.715    2392.8521   -6723.9941    714.50935    36430.288 
   94000    293.55582   -10999.557    2423.0481   -6717.9363    131.27528    36744.911 
   94100    304.73774   -11061.792    2371.9224   -6760.5016    269.99238    36001.383 
   94200    305.85372   -11037.942    2390.4892   -6711.0188      175.839    36548.406 
   94300    300.64141   -11071.242     2422.376   -6745.4329    662.71439    36133.366 
   94400    298.17547   -11022.509    2411.1555   -6723.5333    108.93575    36579.539 
   94500    297.26141   -11049.695    2444.3656   -6723.2959    -698.4064    36582.439 
   94600    298.84251   -11037.471    2408.3576   -6737.0694    140.82766    36487.078 
   94700    300.37353   -11005.456    2392.4084    -6711.311   -12.580158    36809.502 
   94800    297.80391   -11031.197    2425.5951   -6720.1339    289.39459    36543.401 
   94900    302.38992   -11052.554    2404.4718   -6733.5793    300.43592    36297.371 
   95000    297.41391   -11012.334    2416.1829   -6713.1521    1150.1226    36648.051 
   95100    295.91372   -10996.018    2427.0503   -6695.4665   -238.18963    36830.547 
   95200    301.22173    -10975.99    2405.0746   -6663.8079   -168.82826    37247.997 
   95300    302.11106   -10980.718    2388.1981   -6679.7818   -140.24258    37080.298 
   95400    299.64681   -10942.302    2389.1162   -6656.0495     642.5222    37450.317 
   95500    299.51473   -10925.187     2402.741   -6626.1459    13.010223    37728.855 
   95600    301.68423   -10961.075    2410.4076   -6640.6319    389.93212     37367.86 
   95700    308.40966   -10981.971    2365.4451   -6663.9101    484.19202    37212.485 
   95800    308.28552   -10986.928    2349.2317   -6685.8668    100.44091    37051.507 
   95900    300.26533   -10962.516    2395.4129   -6666.0513   -397.55224    37307.964 
   96000    294.56924   -10969.769    2453.4897   -6651.2908   -484.04296    37388.173 
   96100     298.6195   -10984.162    2432.2541   -6661.2757   -21.985607    37301.514 
   96200      301.224   -10943.676    2380.2908   -6656.2632    218.00306    37599.057 
   96300    301.44167   -10955.348    2361.4719   -6685.3762    634.48856    37187.484 
   96400    303.62189   -10935.433    2387.6132   -6625.5169    -222.7623    37800.594 
   96500    302.49091   -10951.934    2406.8594   -6629.9322    19.358129    37470.625 
   96600    297.53412   -10988.158    2452.2991   -6652.0985   -113.80738    37163.356 
   96700    299.23272    -10974.04    2426.0154   -6653.5106   -213.26931     37321.46 
   96800    303.31696   -10946.063    2362.9302   -6662.7602    47.516721    37408.639 
   96900    295.11904   -10963.214    2416.4988   -6678.2455    -856.1009    37130.878 
   97000    294.01722   -10947.124    2433.2637    -6652.367   -365.11416    37353.103 
   97100     302.9336   -10963.991    2412.1304   -6633.9148   -238.64152     37543.23 
   97200    294.82028   -10959.907    2444.5492   -6648.7793   -347.34689    37336.199 
   97300    296.60599   -10939.277     2431.425   -6629.9677   -899.57091    37732.547 
   97400    301.25018   -10960.067    2383.1675   -6669.6118    435.04819    37212.446 
   97500    298.84625   -10952.453    2417.8768    -6642.509   -126.66607    37449.558 
   97600    300.47782   -10971.718    2424.9764   -6644.3445    514.52011    37312.049 
   97700    300.11917    -11003.08    2428.4337   -6674.5201   -616.74993    37022.897 
   97800    297.15601   -11029.568    2452.0625   -6696.1393    853.09407    36831.829 
   97900    302.19719   -11002.102     2387.389   -6701.4297     630.3843    36981.928 
   98000    303.43206   -11001.536    2369.7387   -6710.6964    517.76888    36813.471 
   98100    299.94309   -11037.869    2414.6164   -6724.2406   -188.09638    36403.833 
   98200      307.227   -11046.259    2392.4031   -6708.7279   -366.64803    36545.067 
   98300    305.52891    -11026.09    2377.3971   -6714.3158    1132.6589    36518.792 
   98400    305.03839   -11006.409     2381.671   -6693.4668    333.68644    36852.522 
   98500    299.53457   -10969.442    2408.7663   -6664.2503    280.99673     37294.89 
   98600    301.37503   -11010.004    2401.6286   -6700.2981   -422.23115    36828.233 
   98700    296.98824   -10985.729    2408.5499   -6696.8749   -82.527202     36951.87 
   98800    299.21675   -10987.622    2413.0645   -6680.1448    450.04023    37130.625 
   98900    294.77078   -10974.451    2446.6466     -6661.54   -138.74875    37371.086 
   99000    298.86912   -10957.161    2407.7984     -6657.15   -675.29308    37262.344 
   99100     298.4574   -10966.346    2419.5477   -6657.1926   -8.0385924      37071.2 
   99200     304.6691   -10958.385    2391.7449   -6637.7068   -312.42058    37319.951 
   99300     302.5493   -10992.505    2415.2389   -6661.7539    268.86189    37011.858 
   99400    306.34003   -10971.425    2364.3609   -6667.5521    108.93741    37063.852 
   99500    300.39639   -11032.446    2423.3366   -6707.2281    409.06464     36578.15 
   99600     300.8316   -11024.206    2404.4051   -6715.1633    202.67193     36563.47 
   99700    296.62949   -10981.694    2418.4596   -6685.2018    25.741777    36965.728 
   99800    301.65161   -11020.337     2409.131   -6701.3775   -452.26101    36743.029 
   99900    304.23047   -11031.122    2380.9821   -6723.9839    200.30495    36482.611 
  100000    302.84028   -11028.351    2397.8772   -6713.1193    -899.2011    36713.635 
  100100    303.08728   -11049.582    2396.4923   -6734.1708   -118.47105    36504.475 
  100200    298.37635   -11019.386    2393.1473   -6737.1462   -263.97808    36561.485 
  100300    295.89606   -11029.607    2419.9219   -6736.2963    590.96976    36522.246 
  100400    298.75545   -11000.759    2403.0352   -6706.2313   -73.891995    36857.257 
  100500    308.13209   -11039.453    2371.1417   -6717.4532    406.70408    36591.124 
  100600    301.02199   -11055.352     2408.922   -6740.5873   -434.09951    36396.935 
  100700    299.72308   -11064.476    2402.9501   -6763.9068   -292.35107    36249.919 
  100800    298.98199   -11054.665    2383.3523   -6778.3863   -60.945272     36096.35 
  100900    299.86992    -11056.98    2393.6715   -6764.7595   -603.40678    36257.805 
  101000    302.62897   -11070.579    2367.7814   -6786.7812    518.74138     35870.06 
  101100    295.84331   -11055.969    2417.8859   -6765.0278   -141.72857    36077.198 
  101200    299.08263   -11058.498    2407.8882   -6757.0457    839.64224    36064.288 
  101300    300.26948   -11027.953    2400.0775   -6726.7973    250.98175    36477.806 
  101400    304.78291   -11044.042    2379.1952   -6735.1926    177.22619    36445.861 
  101500    297.81054    -11005.38    2404.5844   -6715.2854   -15.863159    36640.151 
  101600    303.20853   -11047.707     2388.061   -6739.9596     821.9716    36130.868 
  101700    303.47464   -11037.328    2386.0498   -6729.9068    35.842573     36347.95 
  101800    303.59571   -11078.525    2399.0581   -6757.3296    371.60561    36008.017 
  101900    297.01784   -10989.641    2408.4044   -6700.7456    157.08761    36752.606 
  102000    299.56642   -11024.308     2408.342   -6719.3391    780.11993    36390.614 
  102100    303.38469   -11027.396      2395.95   -6710.6445   -333.76552    36461.586 
  102127    294.98821   -11028.184    2443.5696   -6716.9727    359.89704    36348.843 
Loop time of 929.492 on 1 procs for 100000 steps with 2125 atoms

Performance: 9.295 ns/day, 2.582 hours/ns, 107.586 timesteps/s
100.0% CPU use with 1 MPI tasks x no OpenMP threads

MPI task timing breakdown:
Section |  min time  |  avg time  |  max time  |%varavg| %total
---------------------------------------------------------------
Pair    | 684.86     | 684.86     | 684.86     |   0.0 | 73.68
Bond    | 87.924     | 87.924     | 87.924     |   0.0 |  9.46
Kspace  | 81.07      | 81.07      | 81.07      |   0.0 |  8.72
Neigh   | 46.354     | 46.354     | 46.354     |   0.0 |  4.99
Comm    | 3.5404     | 3.5404     | 3.5404     |   0.0 |  0.38
Output  | 0.24919    | 0.24919    | 0.24919    |   0.0 |  0.03
Modify  | 24.548     | 24.548     | 24.548     |   0.0 |  2.64
Other   |            | 0.9493     |            |       |  0.10

Nlocal:        2125.00 ave        2125 max        2125 min
Histogram: 1 0 0 0 0 0 0 0 0 0
Nghost:        9847.00 ave        9847 max        9847 min
Histogram: 1 0 0 0 0 0 0 0 0 0
Neighs:        581299.0 ave      581299 max      581299 min
Histogram: 1 0 0 0 0 0 0 0 0 0

Total # of neighbors = 581299
Ave neighs/atom = 273.55247
Ave special neighs/atom = 8.2352941
Neighbor list builds = 3513
Dangerous builds = 0

write_data   system_after_npt.data
System init for write_data ...
PPPM initialization ...
  using 12-bit tables for long-range coulomb (../kspace.cpp:340)
  G vector (1/distance) = 0.21901712
  grid = 12 12 12
  stencil order = 5
  estimated absolute RMS force accuracy = 0.019089226
  estimated relative force accuracy = 5.7486637e-05
  using double precision KISS FFT
  3d grid and FFT values/proc = 4913 1728
Total wall time: 0:16:07
