LAMMPS (31 Aug 2021)
# PREREQUISITES:
#
#     You must use moltemplate.sh to create 3 files:
#        system.data  system.in.init  system.in.settings
#     (Follow the instructions in README_setup.sh,
#      or run the file as a script using ./README_setup.sh)

# ------------------------------- Initialization Section --------------------

include         "system.in.init"
    units real
    atom_style full
    bond_style harmonic
    angle_style harmonic
    dihedral_style opls
    improper_style harmonic
    pair_style lj/cut/coul/long 11.0 11.0
      # (Note to self: The pair_style used by OPLSAA/M (2015) is:
      #                lj/charmm/coul/long 9.0 11.0
      #                ...so this will have to be updated eventually.)
    pair_modify mix geometric
    special_bonds lj/coul 0.0 0.0 0.5
    kspace_style pppm 0.0001

# ------------------------------- Atom Definition Section -------------------

read_data       "system.data"
Reading data file ...
  orthogonal box = (0.0000000 0.0000000 0.0000000) to (48.000000 48.000000 48.000000)
  1 by 1 by 1 MPI processor grid
  reading atoms ...
  136 atoms
  scanning bonds ...
  3 = max bonds/atom
  scanning angles ...
  6 = max angles/atom
  scanning dihedrals ...
  9 = max dihedrals/atom
  reading bonds ...
  128 bonds
  reading angles ...
  168 angles
  reading dihedrals ...
  256 dihedrals
Finding 1-2 1-3 1-4 neighbors ...
  special bond factors lj:    0        0        0.5     
  special bond factors coul:  0        0        0.5     
     4 = max # of 1-2 neighbors
     7 = max # of 1-3 neighbors
    14 = max # of 1-4 neighbors
    15 = max # of special neighbors
  special bonds CPU = 0.000 seconds
  read_data CPU = 0.003 seconds

# OPLSAA atom charges are stored in a separate file.
# Load that file now:

include         "system.in.charges"
    #--------------------- IMPORTANT -----------------------
    # The first 56 atom types (excluding 48,49) are not intended for use in an
    # ordinary (all-atom) simulation.  Instead, these atoms were intended for
    # use with "United Atom" molecules which lack hydrogen atoms.
    # (They belong to the OPLSUA force field, not the OPLSAA force field.)
    #--------------------------------------------------------
    set type 1 charge -0.22  # "Fluoride -CH2-F (UA)"    DON'T USE(OPLSUA)
Setting atom values ...
  0 settings made for charge
    set type 2 charge 0.22  # "Fluoride -CH2-F (UA)"     DON'T USE(OPLSUA)
Setting atom values ...
  0 settings made for charge
    set type 3 charge 0.55  # "Acetic Acid -COOH (UA)"   DON'T USE(OPLSUA)
Setting atom values ...
  0 settings made for charge
    set type 4 charge -0.5  # "Acetic Acid >C=O (UA)"    DON'T USE(OPLSUA)
Setting atom values ...
  0 settings made for charge
    set type 5 charge -0.58  # "Acetic Acid -OH (UA)"    DON'T USE(OPLSUA)
Setting atom values ...
  0 settings made for charge
    set type 6 charge 0.08  # "Acetic Acid CH3- (UA)"    DON'T USE(OPLSUA)
Setting atom values ...
  0 settings made for charge
    set type 7 charge 0.45  # "Acetic Acid -OH (UA)"     DON'T USE(OPLSUA)
Setting atom values ...
  0 settings made for charge
    set type 8 charge 0.0  # "Methane CH4 (UA)"          DON'T USE(OPLSUA)
Setting atom values ...
  0 settings made for charge
    set type 9 charge 0.0  # "Ethane CH3- (UA)"          DON'T USE(OPLSUA)
Setting atom values ...
  0 settings made for charge
    set type 10 charge 0.0  # "N-Alkane CH3- (UA)"       DON'T USE(OPLSUA)
Setting atom values ...
  0 settings made for charge
    set type 11 charge 0.0  # "Isobutane CH3- (UA)"      DON'T USE(OPLSUA)
Setting atom values ...
  0 settings made for charge
    set type 12 charge 0.0  # "Neopentane CH3- (UA)"     DON'T USE(OPLSUA)
Setting atom values ...
  0 settings made for charge
    set type 13 charge 0.0  # "Alkanes -CH2- (UA)"       DON'T USE(OPLSUA)
Setting atom values ...
  0 settings made for charge
    set type 14 charge 0.0  # "1-Alkene CH2= (UA)"       DON'T USE(OPLSUA)
Setting atom values ...
  0 settings made for charge
    set type 15 charge 0.0  # "Isobutane CH (UA)"        DON'T USE(OPLSUA)
Setting atom values ...
  0 settings made for charge
    set type 16 charge 0.0  # "2-Alkene -CH= (UA)"       DON'T USE(OPLSUA)
Setting atom values ...
  0 settings made for charge
    set type 17 charge 0.0  # "Aromatic CH (UA)"         DON'T USE(OPLSUA)
Setting atom values ...
  0 settings made for charge
    set type 18 charge 0.0  # "Neopentane C (UA)"        DON'T USE(OPLSUA)
Setting atom values ...
  0 settings made for charge
    set type 19 charge 0.0  # "Isobutene >C= (UA)"       DON'T USE(OPLSUA)
Setting atom values ...
  0 settings made for charge
    set type 20 charge -0.7  # "Alcohol OH (UA)"         DON'T USE(OPLSUA)
Setting atom values ...
  0 settings made for charge
    set type 21 charge 0.435  # "Alcohol OH (UA)"        DON'T USE(OPLSUA)
Setting atom values ...
  0 settings made for charge
    set type 22 charge 0.265  # "Methanol CH3- (UA)"     DON'T USE(OPLSUA)
Setting atom values ...
  0 settings made for charge
    set type 23 charge 0.265  # "Ethanol -CH2OH (UA)"    DON'T USE(OPLSUA)
Setting atom values ...
  0 settings made for charge
    set type 24 charge -0.47  # "Hydrogen Sulfide H2S"   DON'T USE(OPLSUA)
Setting atom values ...
  0 settings made for charge
    set type 25 charge -0.45  # "Alkyl Sulfide RSH (UA)" DON'T USE(OPLSUA)
Setting atom values ...
  0 settings made for charge
    set type 26 charge -0.47  # "Thioether RSR (UA)"     DON'T USE(OPLSUA)
Setting atom values ...
  0 settings made for charge
    set type 27 charge -0.3  # "Disulfide RSSR (UA)"     DON'T USE(OPLSUA)
Setting atom values ...
  0 settings made for charge
    set type 28 charge 0.235  # "Hydrogen Sulfide H2S"   DON'T USE(OPLSUA)
Setting atom values ...
  0 settings made for charge
    set type 29 charge 0.27  # "Alkyl Sulfide RSH (UA)"  DON'T USE(OPLSUA)
Setting atom values ...
  0 settings made for charge
    set type 30 charge 0.18  # "Methyl Sulfide CH3 (UA)" DON'T USE(OPLSUA)
Setting atom values ...
  0 settings made for charge
    set type 31 charge 0.18  # "Alkyl Sulfide CH2 (UA)"  DON'T USE(OPLSUA)
Setting atom values ...
  0 settings made for charge
    set type 32 charge 0.235  # "Thioether CH3 (UA)"     DON'T USE(OPLSUA)
Setting atom values ...
  0 settings made for charge
    set type 33 charge 0.235  # "Thioether CH2 (UA)"     DON'T USE(OPLSUA)
Setting atom values ...
  0 settings made for charge
    set type 34 charge 0.3  # "Disulfide CH3 (UA)"       DON'T USE(OPLSUA)
Setting atom values ...
  0 settings made for charge
    set type 35 charge 0.3  # "Disulfide CH2 (UA)"       DON'T USE(OPLSUA)
Setting atom values ...
  0 settings made for charge
    set type 36 charge -0.43  # "Acetonitrile -CN (UA)"  DON'T USE(OPLSUA)
Setting atom values ...
  0 settings made for charge
    set type 37 charge 0.28  # "Acetonitrile -CN (UA)"   DON'T USE(OPLSUA)
Setting atom values ...
  0 settings made for charge
    set type 38 charge 0.15  # "Acetonitrile CH3 (UA)"   DON'T USE(OPLSUA)
Setting atom values ...
  0 settings made for charge
    set type 39 charge 0.265  # "Isopropanol >CHOH (UA)" DON'T USE(OPLSUA)
Setting atom values ...
  0 settings made for charge
    set type 40 charge 0.265  # "t-Butanol COH (UA)"     DON'T USE(OPLSUA)
Setting atom values ...
  0 settings made for charge
    set type 41 charge -0.5  # "Ether ROR (UA)"          DON'T USE(OPLSUA)
Setting atom values ...
  0 settings made for charge
    set type 42 charge 0.25  # "Ether CH3-OR (UA)"       DON'T USE(OPLSUA)
Setting atom values ...
  0 settings made for charge
    set type 43 charge 0.25  # "Ether -CH2-OR (UA)"      DON'T USE(OPLSUA)
Setting atom values ...
  0 settings made for charge
    set type 44 charge 0.5  # "Methylene Chloride (UA)"  DON'T USE(OPLSUA)
Setting atom values ...
  0 settings made for charge
    set type 45 charge -0.25  # "Methylene Chloride (UA)"DON'T USE(OPLSUA)
Setting atom values ...
  0 settings made for charge
    set type 46 charge 0.42  # "Chloroform CHCl3 (UA)"   DON'T USE(OPLSUA)
Setting atom values ...
  0 settings made for charge
    set type 47 charge -0.14  # "Chloroform CHCl3 (UA)"  DON'T USE(OPLSUA)
Setting atom values ...
  0 settings made for charge
    set type 48 charge 0.248  # "Carbon Tetrachloride"
Setting atom values ...
  0 settings made for charge
    set type 49 charge -0.062  # "Carbon Tetrachloride"
Setting atom values ...
  0 settings made for charge
    set type 50 charge 0.139  # "DMSO >S=O (UA)"         DON'T USE(OPLSUA)
Setting atom values ...
  0 settings made for charge
    set type 51 charge -0.459  # "DMSO >S=O (UA)"        DON'T USE(OPLSUA)
Setting atom values ...
  0 settings made for charge
    set type 52 charge 0.16  # "DMSO CH3- (UA)"          DON'T USE(OPLSUA)
Setting atom values ...
  0 settings made for charge
    set type 53 charge -0.5  # "DMF C=O (UA)"            DON'T USE(OPLSUA)
Setting atom values ...
  0 settings made for charge
    set type 54 charge -0.57  # "DMF CON< (UA)"          DON'T USE(OPLSUA)
Setting atom values ...
  0 settings made for charge
    set type 55 charge 0.5  # "DMF C=O (UA)"             DON'T USE(OPLSUA)
Setting atom values ...
  0 settings made for charge
    set type 56 charge 0.285  # "DMF CH3- (UA)"          DON'T USE(OPLSUA)
Setting atom values ...
  0 settings made for charge
    #--------------------------------------------------------
    # ORDINARY (OPLSAA) ATOM TYPES BEGIN HERE:
    # Do not use the "UA" atom types above this line in an all-atom simulation.
    #--------------------------------------------------------
    set type 57 charge 0.0  # "Dummy Atom"
Setting atom values ...
  0 settings made for charge
    set type 58 charge 0.0  # "Helium Atom"
Setting atom values ...
  0 settings made for charge
    set type 59 charge 0.0  # "Neon Atom"
Setting atom values ...
  0 settings made for charge
    set type 60 charge 0.0  # "Argon Atom"
Setting atom values ...
  0 settings made for charge
    set type 61 charge 0.0  # "Krypton Atom"
Setting atom values ...
  0 settings made for charge
    set type 62 charge 0.0  # "Xenon Atom"
Setting atom values ...
  0 settings made for charge
    set type 63 charge -0.834  # "TIP3P Water O"
Setting atom values ...
  0 settings made for charge
    set type 64 charge 0.417  # "TIP3P Water H"
Setting atom values ...
  0 settings made for charge
    set type 65 charge 0.0  # "TIP4P Water O"
Setting atom values ...
  0 settings made for charge
    set type 66 charge 0.52  # "TIP4P Water H"
Setting atom values ...
  0 settings made for charge
    set type 67 charge -1.04  # "TIP4P Water M"
Setting atom values ...
  0 settings made for charge
    set type 68 charge -0.822  # "TIP3F Water O"
Setting atom values ...
  0 settings made for charge
    set type 69 charge 0.411  # "TIP3F Water H"
Setting atom values ...
  0 settings made for charge
    set type 70 charge 0.0  # "TIP4F Water O"
Setting atom values ...
  0 settings made for charge
    set type 71 charge 0.511  # "TIP4F Water H"
Setting atom values ...
  0 settings made for charge
    set type 72 charge -1.022  # "TIP4F Water M"
Setting atom values ...
  0 settings made for charge
    set type 73 charge 0.0  # "TIP5P Water O"
Setting atom values ...
  0 settings made for charge
    set type 74 charge 0.241  # "TIP5P Water H"
Setting atom values ...
  0 settings made for charge
    set type 75 charge -0.241  # "TIP5P Water LP"
Setting atom values ...
  0 settings made for charge
    set type 76 charge -0.82  # "SPC Water O"
Setting atom values ...
  0 settings made for charge
    set type 77 charge 0.41  # "SPC Water H"
Setting atom values ...
  0 settings made for charge
    set type 78 charge -1.02  # "Ammonia NH3"
Setting atom values ...
  0 settings made for charge
    set type 79 charge 0.34  # "Ammonia NH3"
Setting atom values ...
  0 settings made for charge
    set type 80 charge -0.18  # "Alkane CH3-"
Setting atom values ...
  0 settings made for charge
    set type 81 charge -0.12  # "Alkane -CH2-"
Setting atom values ...
  0 settings made for charge
    set type 82 charge -0.06  # "Alkane >CH-"
Setting atom values ...
  0 settings made for charge
    set type 83 charge -0.24  # "Methane CH4"
Setting atom values ...
  0 settings made for charge
    set type 84 charge 0.0  # "Alkane >C<"
Setting atom values ...
  0 settings made for charge
    set type 85 charge 0.06  # "Alkane H-C"
Setting atom values ...
  48 settings made for charge
    set type 86 charge 0.0  # "Alkene R2-C="
Setting atom values ...
  0 settings made for charge
    set type 87 charge -0.115  # "Alkene RH-C="
Setting atom values ...
  0 settings made for charge
    set type 88 charge -0.23  # "Alkene H2-C="
Setting atom values ...
  0 settings made for charge
    set type 89 charge 0.115  # "Alkene H-C="
Setting atom values ...
  0 settings made for charge
    set type 90 charge -0.115  # "Aromatic C"
Setting atom values ...
  0 settings made for charge
    set type 91 charge 0.115  # "Aromatic H-C"
Setting atom values ...
  0 settings made for charge
    set type 92 charge 0.0  # "Naphthalene Fusion C"
Setting atom values ...
  0 settings made for charge
    set type 93 charge -0.065  # "Ethyl Benzene CH3-"
Setting atom values ...
  0 settings made for charge
    set type 94 charge -0.005  # "Ethyl Benzene -CH2-"
Setting atom values ...
  0 settings made for charge
    set type 95 charge -0.115  # "Diene =CH-CH="
Setting atom values ...
  0 settings made for charge
    set type 96 charge -0.683  # "Alcohol -OH"
Setting atom values ...
  0 settings made for charge
    set type 97 charge 0.418  # "Alcohol -OH"
Setting atom values ...
  0 settings made for charge
    set type 98 charge 0.04  # "Methanol CH3-"
Setting atom values ...
  0 settings made for charge
    set type 99 charge 0.145  # "Alcohol CH3OH & RCH2OH"
Setting atom values ...
  0 settings made for charge
    set type 100 charge 0.205  # "Alcohol R2CHOH"
Setting atom values ...
  0 settings made for charge
    set type 101 charge 0.265  # "Alcohol R3COH"
Setting atom values ...
  0 settings made for charge
    set type 102 charge 0.1263  # "Trifluoroethanol -CH2-"
Setting atom values ...
  0 settings made for charge
    set type 103 charge 0.5323  # "Trifluoroethanol CF3-"
Setting atom values ...
  0 settings made for charge
    set type 104 charge -0.6351  # "Trifluoroethanol -OH"
Setting atom values ...
  0 settings made for charge
    set type 105 charge 0.4286  # "Trifluoroethanol -OH"
Setting atom values ...
  0 settings made for charge
    set type 106 charge -0.2057  # "Trifluoroethanol F"
Setting atom values ...
  0 settings made for charge
    set type 107 charge 0.0825  # "Trifluoroethanol -CH2-"
Setting atom values ...
  0 settings made for charge
    set type 108 charge 0.15  # "Phenol C-OH"
Setting atom values ...
  0 settings made for charge
    set type 109 charge -0.585  # "Phenol -OH"
Setting atom values ...
  0 settings made for charge
    set type 110 charge 0.435  # "Phenol -OH"
Setting atom values ...
  0 settings made for charge
    set type 111 charge -0.7  # "Diol -OH"
Setting atom values ...
  0 settings made for charge
    set type 112 charge 0.435  # "Diol -OH"
Setting atom values ...
  0 settings made for charge
    set type 113 charge -0.73  # "Triol -OH"
Setting atom values ...
  0 settings made for charge
    set type 114 charge 0.465  # "Triol -OH"
Setting atom values ...
  0 settings made for charge
    set type 115 charge 0.145  # "Diol & Triol -CH2OH"
Setting atom values ...
  0 settings made for charge
    set type 116 charge 0.205  # "Diol & Triol -CHROH"
Setting atom values ...
  0 settings made for charge
    set type 117 charge 0.265  # "Diol & Triol -CR2OH"
Setting atom values ...
  0 settings made for charge
    set type 118 charge 0.06  # "Diol & Triol H-COH"
Setting atom values ...
  0 settings made for charge
    set type 119 charge -0.17  # "Diphenyl Ether"
Setting atom values ...
  0 settings made for charge
    set type 120 charge 0.0  # "Diene =CR-CR="
Setting atom values ...
  0 settings made for charge
    set type 121 charge -0.285  # "Anisole -OCH3"
Setting atom values ...
  0 settings made for charge
    set type 122 charge -0.4  # "Dialkyl Ether -O-"
Setting atom values ...
  0 settings made for charge
    set type 123 charge 0.11  # "Methyl Ether CH3OR"
Setting atom values ...
  0 settings made for charge
    set type 124 charge 0.14  # "Ethyl Ether -CH2OR"
Setting atom values ...
  0 settings made for charge
    set type 125 charge 0.17  # "Isopropyl Ether >CHOR"
Setting atom values ...
  0 settings made for charge
    set type 126 charge 0.2  # "t-Butyl Ether COR"
Setting atom values ...
  0 settings made for charge
    set type 127 charge 0.03  # "Alkyl Ether H-COR"
Setting atom values ...
  0 settings made for charge
    set type 128 charge -0.4  # "Acetal RO-CR2OX"
Setting atom values ...
  0 settings made for charge
    set type 129 charge -0.7  # "Hemiacetal -OH"
Setting atom values ...
  0 settings made for charge
    set type 130 charge 0.435  # "Hemiacetal -OH"
Setting atom values ...
  0 settings made for charge
    set type 131 charge 0.2  # "Acetal RO-CH2-OR"
Setting atom values ...
  0 settings made for charge
    set type 132 charge 0.1  # "Acetal RO-CH2-OR"
Setting atom values ...
  0 settings made for charge
    set type 133 charge 0.265  # "Hemiacetal RO-CH2-OH"
Setting atom values ...
  0 settings made for charge
    set type 134 charge 0.1  # "Hemiacetal RO-CH2-OH"
Setting atom values ...
  0 settings made for charge
    set type 135 charge 0.3  # "Acetal RO-CHR-OR"
Setting atom values ...
  0 settings made for charge
    set type 136 charge 0.1  # "Acetal RO-CHR-OR"
Setting atom values ...
  0 settings made for charge
    set type 137 charge 0.365  # "Hemiacetal RO-CHR-OH"
Setting atom values ...
  0 settings made for charge
    set type 138 charge 0.1  # "Hemiacetal RO-CHR-OH"
Setting atom values ...
  0 settings made for charge
    set type 139 charge 0.4  # "Acetal RO-CR2-OR"
Setting atom values ...
  0 settings made for charge
    set type 140 charge 0.465  # "Hemiacetal RO-CR2-OH"
Setting atom values ...
  0 settings made for charge
    set type 141 charge 0.085  # "Anisole C-OCH3"
Setting atom values ...
  0 settings made for charge
    set type 142 charge -0.335  # "Thiol -SH"
Setting atom values ...
  0 settings made for charge
    set type 143 charge -0.47  # "Hydrogen Sulfide H2S"
Setting atom values ...
  0 settings made for charge
    set type 144 charge -0.435  # "Sulfide -S-"
Setting atom values ...
  0 settings made for charge
    set type 145 charge -0.2175  # "Disulfide -S-S-"
Setting atom values ...
  0 settings made for charge
    set type 146 charge 0.155  # "Thiol -SH"
Setting atom values ...
  0 settings made for charge
    set type 147 charge 0.235  # "Hydrogen Sulfide H2S"
Setting atom values ...
  0 settings made for charge
    set type 148 charge 0.06  # "Thiol -CH2-SH"
Setting atom values ...
  0 settings made for charge
    set type 149 charge 0.12  # "Thiol >CH-SH"
Setting atom values ...
  0 settings made for charge
    set type 150 charge 0.18  # "Thiol C-SH"
Setting atom values ...
  0 settings made for charge
    set type 151 charge 0.0375  # "Methyl Sulfide CH3-SR"
Setting atom values ...
  0 settings made for charge
    set type 152 charge 0.0975  # "Sulfide RCH2-SR"
Setting atom values ...
  0 settings made for charge
    set type 153 charge 0.1575  # "Sulfide R2CH-SR"
Setting atom values ...
  0 settings made for charge
    set type 154 charge 0.2175  # "Sulfide R3C-SR"
Setting atom values ...
  0 settings made for charge
    set type 155 charge 0.0375  # "Disulfide CH3-S-SR"
Setting atom values ...
  0 settings made for charge
    set type 156 charge 0.0975  # "Disulfide RCH2-S-SR"
Setting atom values ...
  0 settings made for charge
    set type 157 charge 0.1575  # "Disulfide R2CH-S-SR"
Setting atom values ...
  0 settings made for charge
    set type 158 charge 0.2175  # "Disulfide R3C-S-SR"
Setting atom values ...
  0 settings made for charge
    set type 159 charge 0.0  # "Methanethiol CH3-SH"
Setting atom values ...
  0 settings made for charge
    set type 160 charge 0.2  # "Benzyl Alcohol -CH2OH"
Setting atom values ...
  0 settings made for charge
    set type 161 charge 0.26  # "Benzyl Alcohol -CHROH"
Setting atom values ...
  0 settings made for charge
    set type 162 charge 0.32  # "Benzyl Alcohol -CR2OH"
Setting atom values ...
  0 settings made for charge
    set type 163 charge -0.055  # "Benzyl Alcohol/Nitrile"
Setting atom values ...
  0 settings made for charge
    set type 164 charge -0.32  # "Thioanisole -SCH3"
Setting atom values ...
  0 settings made for charge
    set type 165 charge 0.08  # "RCH2-NH2 & GLY CA"
Setting atom values ...
  0 settings made for charge
    set type 166 charge 0.14  # "RCHR-NH2 & ALA CA"
Setting atom values ...
  0 settings made for charge
    set type 167 charge 0.2  # "R3C-NH2 & AIB CA"
Setting atom values ...
  0 settings made for charge
    set type 168 charge -0.12  # "Chloroalkene Cl-CH="
Setting atom values ...
  0 settings made for charge
    set type 169 charge 0.005  # "Chloroalkene Cl-CH="
Setting atom values ...
  0 settings made for charge
    set type 170 charge 0.1025  # "Thioanisole C-SCH3"
Setting atom values ...
  0 settings made for charge
    set type 171 charge 0.14  # "Amide -NH-CHR2"
Setting atom values ...
  0 settings made for charge
    set type 172 charge 0.2  # "Amide -NH-CR3"
Setting atom values ...
  0 settings made for charge
    set type 173 charge 0.7  # "Benzophenone C=O"
Setting atom values ...
  0 settings made for charge
    set type 174 charge 0.565  # "Benzaldehyde C=O"
Setting atom values ...
  0 settings made for charge
    set type 175 charge 0.585  # "Acetophenone C=O"
Setting atom values ...
  0 settings made for charge
    set type 176 charge 0.615  # "Benzamide C=O"
Setting atom values ...
  0 settings made for charge
    set type 177 charge 0.5  # "Amide C=O"
Setting atom values ...
  0 settings made for charge
    set type 178 charge -0.5  # "Amide C=O"
Setting atom values ...
  0 settings made for charge
    set type 179 charge -0.76  # "Amide -CO-NH2"
Setting atom values ...
  0 settings made for charge
    set type 180 charge -0.5  # "Amide -CO-NHR"
Setting atom values ...
  0 settings made for charge
    set type 181 charge -0.14  # "Amide -CO-NR2"
Setting atom values ...
  0 settings made for charge
    set type 182 charge 0.38  # "Amide -CO-NH2"
Setting atom values ...
  0 settings made for charge
    set type 183 charge 0.3  # "Amide -CO-NHR"
Setting atom values ...
  0 settings made for charge
    set type 184 charge 0.02  # "Amide -NH-CH3"
Setting atom values ...
  0 settings made for charge
    set type 185 charge -0.11  # "Amide -NR-CH3"
Setting atom values ...
  0 settings made for charge
    set type 186 charge 0.08  # "Amide -NH-CH2R"
Setting atom values ...
  0 settings made for charge
    set type 187 charge -0.05  # "Amide -NR-CH2R & PRO CD"
Setting atom values ...
  0 settings made for charge
    set type 188 charge 0.01  # "Amide -NR-CHR2 & PRO CA"
Setting atom values ...
  0 settings made for charge
    set type 189 charge 0.142  # "Urea C=O"
Setting atom values ...
  0 settings made for charge
    set type 190 charge -0.39  # "Urea C=O"
Setting atom values ...
  0 settings made for charge
    set type 191 charge -0.542  # "Urea -NH2"
Setting atom values ...
  0 settings made for charge
    set type 192 charge 0.333  # "Urea -NH2"
Setting atom values ...
  0 settings made for charge
    set type 193 charge -0.49  # "Imide -NH-"
Setting atom values ...
  0 settings made for charge
    set type 194 charge 0.42  # "Imide C=O"
Setting atom values ...
  0 settings made for charge
    set type 195 charge -0.42  # "Imide C=O"
Setting atom values ...
  0 settings made for charge
    set type 196 charge 0.37  # "Imide -NH-"
Setting atom values ...
  0 settings made for charge
    set type 197 charge 0.06  # "Formimide H-C=O"
Setting atom values ...
  0 settings made for charge
    set type 198 charge -0.12  # "Imide CH3-CONHCO-"
Setting atom values ...
  0 settings made for charge
    set type 199 charge -0.06  # "Imide -CH2-CONHCO-"
Setting atom values ...
  0 settings made for charge
    set type 200 charge 0.0  # "Imide >CH-CONHCO-"
Setting atom values ...
  0 settings made for charge
    set type 201 charge 0.06  # "Imide C-CONHCO-"
Setting atom values ...
  0 settings made for charge
    set type 202 charge 0.035  # "Benzonitrile C-CN"
Setting atom values ...
  0 settings made for charge
    set type 203 charge 0.395  # "Benzonitrile -CN"
Setting atom values ...
  0 settings made for charge
    set type 204 charge -0.43  # "Benzonitrile -CN"
Setting atom values ...
  0 settings made for charge
    set type 205 charge 0.18  # "Chlorobenzene C-Cl"
Setting atom values ...
  0 settings made for charge
    set type 206 charge -0.18  # "Chlorobenzene C-Cl"
Setting atom values ...
  0 settings made for charge
    set type 207 charge -0.385  # "N-Phenylacetamide N"
Setting atom values ...
  0 settings made for charge
    set type 208 charge 0.085  # "N-Phenylacetamide N-CA"
Setting atom values ...
  0 settings made for charge
    set type 209 charge 0.52  # "Carboxylic Acid -COOH"
Setting atom values ...
  0 settings made for charge
    set type 210 charge -0.44  # "Carboxylic Acid C=O"
Setting atom values ...
  0 settings made for charge
    set type 211 charge -0.53  # "Carboxylic Acid -OH"
Setting atom values ...
  0 settings made for charge
    set type 212 charge 0.45  # "Carboxylic Acid -COOH"
Setting atom values ...
  0 settings made for charge
    set type 213 charge 0.7  # "Carboxylate COO-"
Setting atom values ...
  0 settings made for charge
    set type 214 charge -0.8  # "Carboxylate COO-"
Setting atom values ...
  0 settings made for charge
    set type 215 charge -0.28  # "Carboxylate CH3-COO-"
Setting atom values ...
  0 settings made for charge
    set type 216 charge -0.22  # "Carboxylate RCH2-COO-"
Setting atom values ...
  0 settings made for charge
    set type 217 charge -0.16  # "Carboxylate R2CH-COO-"
Setting atom values ...
  0 settings made for charge
    set type 218 charge -0.1  # "Carboxylate R3C-COO-"
Setting atom values ...
  0 settings made for charge
    set type 219 charge 0.45  # "Aldehyde/Acyl Halide C=O"
Setting atom values ...
  0 settings made for charge
    set type 220 charge -0.45  # "Aldehyde/Acyl Halide C=O"
Setting atom values ...
  0 settings made for charge
    set type 221 charge 0.0  # "Aldehyde/Formamide H-C=O"
Setting atom values ...
  0 settings made for charge
    set type 222 charge 0.47  # "Ketone C=O"
Setting atom values ...
  0 settings made for charge
    set type 223 charge -0.47  # "Ketone C=O"
Setting atom values ...
  0 settings made for charge
    set type 224 charge 0.06  # "Acyl H-C-COX"
Setting atom values ...
  0 settings made for charge
    set type 225 charge 0.04  # "C-Terminal ALA CA"
Setting atom values ...
  0 settings made for charge
    set type 226 charge -0.02  # "C-Terminal GLY CA"
Setting atom values ...
  0 settings made for charge
    set type 227 charge 0.1  # "C-Terminal AIB CA"
Setting atom values ...
  0 settings made for charge
    set type 228 charge -0.09  # "C-Terminal PRO CA"
Setting atom values ...
  0 settings made for charge
    set type 229 charge -0.4  # "Ammonium NH4+"
Setting atom values ...
  0 settings made for charge
    set type 230 charge -0.3  # "Ammonium RNH3+"
Setting atom values ...
  0 settings made for charge
    set type 231 charge 0.0  # "Ammonium R4N+"
Setting atom values ...
  0 settings made for charge
    set type 232 charge 0.35  # "Ammonium NH4+"
Setting atom values ...
  0 settings made for charge
    set type 233 charge 0.33  # "Ammonium RNH3+"
Setting atom values ...
  0 settings made for charge
    set type 234 charge 0.13  # "Ammonium CH3-NH3+"
Setting atom values ...
  0 settings made for charge
    set type 235 charge 0.19  # "CH3NH3+/N-Term GLY CA"
Setting atom values ...
  0 settings made for charge
    set type 236 charge 0.25  # "RCH2NH3+/N-Term ALA CA"
Setting atom values ...
  0 settings made for charge
    set type 237 charge 0.31  # "R3C-NH3+/N-Term AIB CA"
Setting atom values ...
  0 settings made for charge
    set type 238 charge 0.23  # "N-Terminal PRO CA"
Setting atom values ...
  0 settings made for charge
    set type 239 charge 0.17  # "N-Terminal PRO CD"
Setting atom values ...
  0 settings made for charge
    set type 240 charge 0.11  # "Ammonium CH3-NH2R+"
Setting atom values ...
  0 settings made for charge
    set type 241 charge 0.09  # "GLY Zwitterion CA"
Setting atom values ...
  0 settings made for charge
    set type 242 charge 0.15  # "ALA Zwitterion CA"
Setting atom values ...
  0 settings made for charge
    set type 243 charge -0.8  # "Guanidinium -NH2"
Setting atom values ...
  0 settings made for charge
    set type 244 charge 0.46  # "Guanidinium -NH2"
Setting atom values ...
  0 settings made for charge
    set type 245 charge 0.64  # "Guanidinium C+"
Setting atom values ...
  0 settings made for charge
    set type 246 charge -0.7  # "Guanidinium -NHR"
Setting atom values ...
  0 settings made for charge
    set type 247 charge 0.44  # "Guanidinium -NHR"
Setting atom values ...
  0 settings made for charge
    set type 248 charge 0.2  # "Me Guanidinium CH3-"
Setting atom values ...
  0 settings made for charge
    set type 249 charge -0.11  # "Et Guanidinium CH3-"
Setting atom values ...
  0 settings made for charge
    set type 250 charge 0.19  # "Et Guan -CH2- & ARG CD"
Setting atom values ...
  0 settings made for charge
    set type 251 charge -0.05  # "Pr Guan -CH2- & ARG CG"
Setting atom values ...
  0 settings made for charge
    set type 252 charge -0.2  # "Ammonium R2NH2+"
Setting atom values ...
  0 settings made for charge
    set type 253 charge 0.31  # "Ammonium R2NH2+"
Setting atom values ...
  0 settings made for charge
    set type 254 charge -0.46  # "Diaminopyridine N1"
Setting atom values ...
  0 settings made for charge
    set type 255 charge 0.36  # "Diaminopyridine C2"
Setting atom values ...
  0 settings made for charge
    set type 256 charge -0.85  # "Diaminopyridine -NH2"
Setting atom values ...
  0 settings made for charge
    set type 257 charge 0.37  # "Diaminopyridine -NH2"
Setting atom values ...
  0 settings made for charge
    set type 258 charge -0.15  # "Diaminopyridine C3"
Setting atom values ...
  0 settings made for charge
    set type 259 charge 0.1  # "Diaminopyridine H3"
Setting atom values ...
  0 settings made for charge
    set type 260 charge -0.04  # "Diaminopyridine C4"
Setting atom values ...
  0 settings made for charge
    set type 261 charge 0.1  # "Diaminopyridine H4"
Setting atom values ...
  0 settings made for charge
    set type 262 charge -0.6  # "Uracil & Thymine N1"
Setting atom values ...
  0 settings made for charge
    set type 263 charge 0.5  # "Uracil & Thymine C2"
Setting atom values ...
  0 settings made for charge
    set type 264 charge -0.51  # "Uracil & Thymine N3"
Setting atom values ...
  0 settings made for charge
    set type 265 charge 0.45  # "Uracil & Thymine C4"
Setting atom values ...
  0 settings made for charge
    set type 266 charge -0.07  # "Uracil & Thymine C5"
Setting atom values ...
  0 settings made for charge
    set type 267 charge 0.08  # "Uracil & Thymine C6"
Setting atom values ...
  0 settings made for charge
    set type 268 charge 0.41  # "Uracil & Thymine HN1"
Setting atom values ...
  0 settings made for charge
    set type 269 charge -0.4  # "Uracil & Thymine O2"
Setting atom values ...
  0 settings made for charge
    set type 270 charge 0.36  # "Uracil & Thymine HN3"
Setting atom values ...
  0 settings made for charge
    set type 271 charge -0.42  # "Uracil & Thymine O4"
Setting atom values ...
  0 settings made for charge
    set type 272 charge 0.1  # "Uracil & Thymine HC5"
Setting atom values ...
  0 settings made for charge
    set type 273 charge 0.1  # "Uracil & Thymine HC6"
Setting atom values ...
  0 settings made for charge
    set type 274 charge -0.14  # "Thymine CH3-"
Setting atom values ...
  0 settings made for charge
    set type 275 charge 0.08  # "Thymine CH3-"
Setting atom values ...
  0 settings made for charge
    set type 276 charge -0.56  # "Cytosine N1"
Setting atom values ...
  0 settings made for charge
    set type 277 charge 0.55  # "Cytosine C2"
Setting atom values ...
  0 settings made for charge
    set type 278 charge -0.54  # "Cytosine N3"
Setting atom values ...
  0 settings made for charge
    set type 279 charge 0.46  # "Cytosine C4"
Setting atom values ...
  0 settings made for charge
    set type 280 charge -0.06  # "Cytosine C5"
Setting atom values ...
  0 settings made for charge
    set type 281 charge 0.1  # "Cytosine C6"
Setting atom values ...
  0 settings made for charge
    set type 282 charge 0.38  # "Cytosine HN1"
Setting atom values ...
  0 settings made for charge
    set type 283 charge -0.48  # "Cytosine O2"
Setting atom values ...
  0 settings made for charge
    set type 284 charge -0.79  # "Cytosine NH2-"
Setting atom values ...
  0 settings made for charge
    set type 285 charge 0.385  # "Cytosine NH2- (N3)"
Setting atom values ...
  0 settings made for charge
    set type 286 charge 0.355  # "Cytosine NH2- (C5)"
Setting atom values ...
  0 settings made for charge
    set type 287 charge 0.1  # "Cytosine HC5"
Setting atom values ...
  0 settings made for charge
    set type 288 charge 0.1  # "Cytosine HC6"
Setting atom values ...
  0 settings made for charge
    set type 289 charge -0.53  # "Adenine N1"
Setting atom values ...
  0 settings made for charge
    set type 290 charge 0.22  # "Adenine C2"
Setting atom values ...
  0 settings made for charge
    set type 291 charge -0.55  # "Adenine N3"
Setting atom values ...
  0 settings made for charge
    set type 292 charge 0.38  # "Adenine C4"
Setting atom values ...
  0 settings made for charge
    set type 293 charge 0.15  # "Adenine C5"
Setting atom values ...
  0 settings made for charge
    set type 294 charge 0.44  # "Adenine C6"
Setting atom values ...
  0 settings made for charge
    set type 295 charge -0.49  # "Adenine & Guanine N7"
Setting atom values ...
  0 settings made for charge
    set type 296 charge 0.2  # "Adenine & Guanine C8"
Setting atom values ...
  0 settings made for charge
    set type 297 charge -0.5  # "Adenine & Guanine N9"
Setting atom values ...
  0 settings made for charge
    set type 298 charge 0.2  # "Adenine HC2"
Setting atom values ...
  0 settings made for charge
    set type 299 charge -0.81  # "Adenine NH2-"
Setting atom values ...
  0 settings made for charge
    set type 300 charge 0.385  # "Adenine NH2- (N1)"
Setting atom values ...
  0 settings made for charge
    set type 301 charge 0.355  # "Adenine NH2- (C5)"
Setting atom values ...
  0 settings made for charge
    set type 302 charge 0.2  # "Adenine & Guanine HC8"
Setting atom values ...
  0 settings made for charge
    set type 303 charge 0.35  # "Adenine & Guanine HN9"
Setting atom values ...
  0 settings made for charge
    set type 304 charge -0.56  # "Guanine N1"
Setting atom values ...
  0 settings made for charge
    set type 305 charge 0.46  # "Guanine C2"
Setting atom values ...
  0 settings made for charge
    set type 306 charge -0.51  # "Guanine N3"
Setting atom values ...
  0 settings made for charge
    set type 307 charge 0.34  # "Guanine C4"
Setting atom values ...
  0 settings made for charge
    set type 308 charge 0.12  # "Guanine C5"
Setting atom values ...
  0 settings made for charge
    set type 309 charge 0.52  # "Guanine C6"
Setting atom values ...
  0 settings made for charge
    set type 310 charge 0.38  # "Guanine HN1"
Setting atom values ...
  0 settings made for charge
    set type 311 charge -0.8  # "Guanine NH2-"
Setting atom values ...
  0 settings made for charge
    set type 312 charge 0.4  # "Guanine NH2-"
Setting atom values ...
  0 settings made for charge
    set type 313 charge -0.51  # "Guanine O6"
Setting atom values ...
  0 settings made for charge
    set type 314 charge -0.01  # "9-Me A & 9-Me-G CH3-"
Setting atom values ...
  0 settings made for charge
    set type 315 charge 0.12  # "9-Me-A & 9-Me-G CH3-"
Setting atom values ...
  0 settings made for charge
    set type 316 charge -0.01  # "1-Me-U & 1-Me-T CH3-"
Setting atom values ...
  0 settings made for charge
    set type 317 charge 0.14  # "1-Me-U & 1-Me-T CH3-"
Setting atom values ...
  0 settings made for charge
    set type 318 charge -0.01  # "1-Me-Cytosine CH3-"
Setting atom values ...
  0 settings made for charge
    set type 319 charge 0.13  # "1-Me-Cytosine CH3-"
Setting atom values ...
  0 settings made for charge
    set type 320 charge -0.64  # "CytosineH+ N1"
Setting atom values ...
  0 settings made for charge
    set type 321 charge 0.65  # "CytosineH+ C2"
Setting atom values ...
  0 settings made for charge
    set type 322 charge -0.74  # "CytosineH+ N3"
Setting atom values ...
  0 settings made for charge
    set type 323 charge 0.66  # "CytosineH+ C4"
Setting atom values ...
  0 settings made for charge
    set type 324 charge -0.06  # "CytosineH+ C5"
Setting atom values ...
  0 settings made for charge
    set type 325 charge 0.1  # "CytosineH+ C6"
Setting atom values ...
  0 settings made for charge
    set type 326 charge 0.49  # "CytosineH+ HN1"
Setting atom values ...
  0 settings made for charge
    set type 327 charge -0.3  # "CytosineH+ O2"
Setting atom values ...
  0 settings made for charge
    set type 328 charge 0.48  # "CytosineH+ HN3"
Setting atom values ...
  0 settings made for charge
    set type 329 charge -0.81  # "CytosineH+ NH2-"
Setting atom values ...
  0 settings made for charge
    set type 330 charge 0.46  # "CytosineH+ NH2- (N3)"
Setting atom values ...
  0 settings made for charge
    set type 331 charge 0.43  # "CytosineH+ NH2- (C5)"
Setting atom values ...
  0 settings made for charge
    set type 332 charge 0.14  # "CytosineH+ HC5"
Setting atom values ...
  0 settings made for charge
    set type 333 charge 0.14  # "CytosineH+ HC6"
Setting atom values ...
  0 settings made for charge
    set type 334 charge 0.01  # "1-Me-CytosineH+ CH3-"
Setting atom values ...
  0 settings made for charge
    set type 335 charge 0.16  # "1-Me-CytosineH+ CH3-"
Setting atom values ...
  0 settings made for charge
    set type 336 charge 0.78  # "DiMePhosphate P (UA)"
Setting atom values ...
  0 settings made for charge
    set type 337 charge -0.66  # "DiMePhosphate O=P-O (UA)"
Setting atom values ...
  0 settings made for charge
    set type 338 charge -0.43  # "DiMePhosphate CH3-O (UA)"
Setting atom values ...
  0 settings made for charge
    set type 339 charge 0.2  # "DiMePhosphate CH3-O (UA)"
Setting atom values ...
  0 settings made for charge
    set type 340 charge 0.18  # "Trifluorothymine CF3-"
Setting atom values ...
  0 settings made for charge
    set type 341 charge -0.06  # "Chloroalkene Cl2-C="
Setting atom values ...
  0 settings made for charge
    set type 342 charge 0.12  # "Chloroalkene Cl2-C="
Setting atom values ...
  0 settings made for charge
    set type 343 charge -1.0  # "Fluoride Ion F-"
Setting atom values ...
  0 settings made for charge
    set type 344 charge -1.0  # "Chloride Ion Cl-"
Setting atom values ...
  0 settings made for charge
    set type 345 charge -1.0  # "Bromide Ion Br-"
Setting atom values ...
  0 settings made for charge
    set type 346 charge -1.0  # "Iodide Ion I-"
Setting atom values ...
  0 settings made for charge
    set type 347 charge 1.0  # "Ammonium Ion NH4+ (UA)"
Setting atom values ...
  0 settings made for charge
    set type 348 charge 1.0  # "Lithium Ion Li+"
Setting atom values ...
  0 settings made for charge
    set type 349 charge 1.0  # "Sodium Ion Na+"
Setting atom values ...
  0 settings made for charge
    set type 350 charge 1.0  # "Potassium Ion K+"
Setting atom values ...
  0 settings made for charge
    set type 351 charge 1.0  # "Rubidium Ion Rb+"
Setting atom values ...
  0 settings made for charge
    set type 352 charge 1.0  # "Cesium Ion Cs+"
Setting atom values ...
  0 settings made for charge
    set type 353 charge 2.0  # "Magnesium Ion Mg+2"
Setting atom values ...
  0 settings made for charge
    set type 354 charge 2.0  # "Calcium Ion Ca+2"
Setting atom values ...
  0 settings made for charge
    set type 355 charge 2.0  # "Strontium Ion Sr+2"
Setting atom values ...
  0 settings made for charge
    set type 356 charge 2.0  # "Barium Ion Ba+2"
Setting atom values ...
  0 settings made for charge
    set type 357 charge -0.4  # "Methyl Thiolate CH3S-"
Setting atom values ...
  0 settings made for charge
    set type 358 charge 0.1  # "Methyl Thiolate CH3S-"
Setting atom values ...
  0 settings made for charge
    set type 359 charge -0.9  # "Methyl Thiolate CH3S-"
Setting atom values ...
  0 settings made for charge
    set type 360 charge -0.2  # "Methoxide CH3O-"
Setting atom values ...
  0 settings made for charge
    set type 361 charge 0.06  # "Methoxide CH3O-"
Setting atom values ...
  0 settings made for charge
    set type 362 charge -0.98  # "Methoxide CH3O-"
Setting atom values ...
  0 settings made for charge
    set type 363 charge -1.07  # "Nitrile Anion CNCH2-"
Setting atom values ...
  0 settings made for charge
    set type 364 charge 0.19  # "Nitrile Anion CNCH2-"
Setting atom values ...
  0 settings made for charge
    set type 365 charge 0.51  # "Nitrile Anion CNCH2-"
Setting atom values ...
  0 settings made for charge
    set type 366 charge -0.82  # "Nitrile Anion CNCH2-"
Setting atom values ...
  0 settings made for charge
    set type 367 charge -0.3  # "Me Amine Anion CH3NH-"
Setting atom values ...
  0 settings made for charge
    set type 368 charge 0.07  # "Me Amine Anion CH3NH-"
Setting atom values ...
  0 settings made for charge
    set type 369 charge -1.31  # "Me Amine Anion CH3NH-"
Setting atom values ...
  0 settings made for charge
    set type 370 charge 0.4  # "Methyl Amine Anion"
Setting atom values ...
  0 settings made for charge
    set type 371 charge -0.4  # "Ethyl Anion CH3-CH2-"
Setting atom values ...
  0 settings made for charge
    set type 372 charge 0.08  # "Ethyl Anion CH3-CH2-"
Setting atom values ...
  0 settings made for charge
    set type 373 charge 0.0  # "Ethyl Anion CH3-CH2-"
Setting atom values ...
  0 settings made for charge
    set type 374 charge 0.07  # "Ethyl Anion CH3-CH2-"
Setting atom values ...
  0 settings made for charge
    set type 375 charge -0.98  # "Ethyl Anion CH3-CH2-"
Setting atom values ...
  0 settings made for charge
    set type 376 charge -1.3  # "Hydroxide Ion OH-"
Setting atom values ...
  0 settings made for charge
    set type 377 charge 0.3  # "Hydroxide Ion OH-"
Setting atom values ...
  0 settings made for charge
    set type 378 charge 2.5  # "Uranyl Ion UO2+"
Setting atom values ...
  0 settings made for charge
    set type 379 charge -0.25  # "Uranyl Ion UO2+"
Setting atom values ...
  0 settings made for charge
    set type 380 charge -0.865  # "GTP O-(POn)2"
Setting atom values ...
  0 settings made for charge
    set type 381 charge 1.62  # "DiMe Phosphate P"
Setting atom values ...
  0 settings made for charge
    set type 382 charge -0.92  # "DiMe Phosphate O=P-O"
Setting atom values ...
  0 settings made for charge
    set type 383 charge -0.6  # "DiMe Phosphate CH3-O"
Setting atom values ...
  0 settings made for charge
    set type 384 charge 0.3  # "DiMe Phosphate CH3-O"
Setting atom values ...
  0 settings made for charge
    set type 385 charge -0.03  # "DiMe Phosphate CH3-O"
Setting atom values ...
  0 settings made for charge
    set type 386 charge 1.92  # "Me Phosphate P"
Setting atom values ...
  0 settings made for charge
    set type 387 charge -1.12  # "Me Phosphate O=PO2"
Setting atom values ...
  0 settings made for charge
    set type 388 charge -0.7  # "Me Phosphate CH3-O"
Setting atom values ...
  0 settings made for charge
    set type 389 charge 0.44  # "Me Phosphate CH3-O"
Setting atom values ...
  0 settings made for charge
    set type 390 charge -0.1  # "Me Phosphate CH3-O"
Setting atom values ...
  0 settings made for charge
    set type 391 charge 1.62  # "Me MePhosphonate P"
Setting atom values ...
  0 settings made for charge
    set type 392 charge -0.97  # "Me MePhosphonate O=P-O"
Setting atom values ...
  0 settings made for charge
    set type 393 charge -0.63  # "Me MePhosphonate CH3-O"
Setting atom values ...
  0 settings made for charge
    set type 394 charge 0.28  # "Me MePhosphonate CH3-O"
Setting atom values ...
  0 settings made for charge
    set type 395 charge -0.02  # "Me MePhosphonate CH3-O"
Setting atom values ...
  0 settings made for charge
    set type 396 charge -0.51  # "Me MePhosphonate CH3-P"
Setting atom values ...
  0 settings made for charge
    set type 397 charge 0.08  # "Me MePhosphonate CH3-P"
Setting atom values ...
  0 settings made for charge
    set type 398 charge -0.14  # "Bz MePhosphonate Cipso"
Setting atom values ...
  0 settings made for charge
    set type 399 charge 0.32  # "Bz MePhosphonate CH3-O"
Setting atom values ...
  0 settings made for charge
    set type 400 charge 0.02  # "Bz MePhosphonate CH3-O"
Setting atom values ...
  0 settings made for charge
    set type 401 charge -0.04  # "Me BzPhosphonate Cipso"
Setting atom values ...
  0 settings made for charge
    set type 402 charge -0.47  # "Me BzPhosphonate CH3-P"
Setting atom values ...
  0 settings made for charge
    set type 403 charge 0.12  # "Me BzPhosphonate CH3-P"
Setting atom values ...
  0 settings made for charge
    set type 404 charge 0.14  # "Ph Phosphate Cipso"
Setting atom values ...
  0 settings made for charge
    set type 405 charge 0.24  # "Barbiturate C6(R2)"
Setting atom values ...
  0 settings made for charge
    set type 406 charge 0.51  # "Ester -COOR"
Setting atom values ...
  0 settings made for charge
    set type 407 charge -0.43  # "Ester C=O"
Setting atom values ...
  0 settings made for charge
    set type 408 charge -0.33  # "Ester CO-O-R"
Setting atom values ...
  0 settings made for charge
    set type 409 charge 0.16  # "Methyl Ester -OCH3"
Setting atom values ...
  0 settings made for charge
    set type 410 charge 0.03  # "Ester -OCH<"
Setting atom values ...
  0 settings made for charge
    set type 411 charge 0.635  # "Benzoic Acid -COOH"
Setting atom values ...
  0 settings made for charge
    set type 412 charge 0.625  # "Aryl Ester -COOR"
Setting atom values ...
  0 settings made for charge
    set type 413 charge 0.135  # "Phenyl Ester Cipso"
Setting atom values ...
  0 settings made for charge
    set type 414 charge -0.215  # "Phenyl Ester -OPh"
Setting atom values ...
  0 settings made for charge
    set type 415 charge 1.48  # "Sulfonamide -SO2N<"
Setting atom values ...
  0 settings made for charge
    set type 416 charge -0.68  # "Sulfonamide -SO2N<"
Setting atom values ...
  0 settings made for charge
    set type 417 charge -0.54  # "Sulfonamide CH3-S"
Setting atom values ...
  0 settings made for charge
    set type 418 charge 0.18  # "Sulfonamide CH3-S"
Setting atom values ...
  0 settings made for charge
    set type 419 charge -1.0  # "Sulfonamide -SO2NH2"
Setting atom values ...
  0 settings made for charge
    set type 420 charge 0.44  # "Sulfonamide -SO2NH2"
Setting atom values ...
  0 settings made for charge
    set type 421 charge -0.8  # "Sulfonamide -SO2NHR"
Setting atom values ...
  0 settings made for charge
    set type 422 charge 0.41  # "Sulfonamide -SO2NHR"
Setting atom values ...
  0 settings made for charge
    set type 423 charge 0.18  # "N-Me Sulfonamide CH3-"
Setting atom values ...
  0 settings made for charge
    set type 424 charge 0.03  # "N-Me Sulfonamide CH3-"
Setting atom values ...
  0 settings made for charge
    set type 425 charge 0.39  # "Sulfonamide N-CH2-R"
Setting atom values ...
  0 settings made for charge
    set type 426 charge -0.06  # "Sulfonamide N-CH2-R"
Setting atom values ...
  0 settings made for charge
    set type 427 charge -0.18  # "N-Et Sulfonamide CH3-"
Setting atom values ...
  0 settings made for charge
    set type 428 charge 0.06  # "N-Et Sulfonamide CH3-"
Setting atom values ...
  0 settings made for charge
    set type 429 charge 0.0  # "Aryl Sulfonamide C-SO2N"
Setting atom values ...
  0 settings made for charge
    set type 430 charge 0.03  # "Aryl Sulfoxide C-S=O"
Setting atom values ...
  0 settings made for charge
    set type 431 charge 0.19  # "Et Ester -OCH2R"
Setting atom values ...
  0 settings made for charge
    set type 432 charge 0.22  # "i-Pr Ester -OCHR2"
Setting atom values ...
  0 settings made for charge
    set type 433 charge 0.25  # "t-Bu Ester -OCR3"
Setting atom values ...
  0 settings made for charge
    set type 434 charge 1.374  # "Sulfone R-SO2-R"
Setting atom values ...
  0 settings made for charge
    set type 435 charge -0.687  # "Sulfone R-SO2-R"
Setting atom values ...
  0 settings made for charge
    set type 436 charge 0.245  # "Alkyl Aryl Sulfoxide"
Setting atom values ...
  0 settings made for charge
    set type 437 charge 0.13  # "Dialkyl Sulfoxide"
Setting atom values ...
  0 settings made for charge
    set type 438 charge -0.42  # "Sulfoxide R-SO-R"
Setting atom values ...
  0 settings made for charge
    set type 439 charge -0.035  # "Sulfoxide CH3-SO-R"
Setting atom values ...
  0 settings made for charge
    set type 440 charge 0.025  # "Sulfoxide -CH2-SO-R"
Setting atom values ...
  0 settings made for charge
    set type 441 charge 0.075  # "TRP CG"
Setting atom values ...
  0 settings made for charge
    set type 442 charge -0.055  # "TRP CD"
Setting atom values ...
  0 settings made for charge
    set type 443 charge 0.13  # "TRP CE"
Setting atom values ...
  0 settings made for charge
    set type 444 charge -0.57  # "TRP NE, HID ND & HIE NE"
Setting atom values ...
  0 settings made for charge
    set type 445 charge 0.42  # "TRP HNE & HID/HIE HN"
Setting atom values ...
  0 settings made for charge
    set type 446 charge -0.005  # "HIS CB"
Setting atom values ...
  0 settings made for charge
    set type 447 charge 0.295  # "HID & HIE CE1"
Setting atom values ...
  0 settings made for charge
    set type 448 charge -0.015  # "HID CD2 & HIE CG"
Setting atom values ...
  0 settings made for charge
    set type 449 charge 0.015  # "HID CG & HIE CD2"
Setting atom values ...
  0 settings made for charge
    set type 450 charge 0.385  # "HIP CE1"
Setting atom values ...
  0 settings made for charge
    set type 451 charge 0.215  # "HIP CG & CD2"
Setting atom values ...
  0 settings made for charge
    set type 452 charge -0.49  # "HID NE & HIE ND"
Setting atom values ...
  0 settings made for charge
    set type 453 charge -0.54  # "HIP ND & NE"
Setting atom values ...
  0 settings made for charge
    set type 454 charge 0.46  # "HIP HND & HNE"
Setting atom values ...
  0 settings made for charge
    set type 455 charge -0.115  # "TRP CD1"
Setting atom values ...
  0 settings made for charge
    set type 456 charge 0.055  # "i-Pr Benzene -CHMe2"
Setting atom values ...
  0 settings made for charge
    set type 457 charge 0.115  # "t-Bu Benzene -CMe3"
Setting atom values ...
  0 settings made for charge
    set type 458 charge -0.03  # "Vinyl Ether =CH-OR"
Setting atom values ...
  0 settings made for charge
    set type 459 charge 0.085  # "Vinyl Ether =CR-OR"
Setting atom values ...
  0 settings made for charge
    set type 460 charge 0.0  # "Biphenyl C1"
Setting atom values ...
  0 settings made for charge
    set type 461 charge -0.678  # "Pyridine N"
Setting atom values ...
  0 settings made for charge
    set type 462 charge 0.473  # "Pyridine C1"
Setting atom values ...
  0 settings made for charge
    set type 463 charge -0.447  # "Pyridine C2"
Setting atom values ...
  0 settings made for charge
    set type 464 charge 0.227  # "Pyridine C3"
Setting atom values ...
  0 settings made for charge
    set type 465 charge 0.012  # "Pyridine H1"
Setting atom values ...
  0 settings made for charge
    set type 466 charge 0.155  # "Pyridine H2"
Setting atom values ...
  0 settings made for charge
    set type 467 charge 0.065  # "Pyridine H3"
Setting atom values ...
  0 settings made for charge
    set type 468 charge -0.468  # "Pyrazine N"
Setting atom values ...
  0 settings made for charge
    set type 469 charge 0.192  # "Pyrazine CH"
Setting atom values ...
  0 settings made for charge
    set type 470 charge 0.042  # "Pyrazine CH"
Setting atom values ...
  0 settings made for charge
    set type 471 charge -0.839  # "Pyrimidine N"
Setting atom values ...
  0 settings made for charge
    set type 472 charge 0.874  # "Pyrimidine C2"
Setting atom values ...
  0 settings made for charge
    set type 473 charge 0.653  # "Pyrimidine C4"
Setting atom values ...
  0 settings made for charge
    set type 474 charge -0.689  # "Pyrimidine C5"
Setting atom values ...
  0 settings made for charge
    set type 475 charge -0.032  # "Pyrimidine HC2"
Setting atom values ...
  0 settings made for charge
    set type 476 charge 0.011  # "Pyrimidine HC4"
Setting atom values ...
  0 settings made for charge
    set type 477 charge 0.197  # "Pyrimidine HC5"
Setting atom values ...
  0 settings made for charge
    set type 478 charge -0.331  # "Pyridazine N"
Setting atom values ...
  0 settings made for charge
    set type 479 charge 0.378  # "Pyridazine C3"
Setting atom values ...
  0 settings made for charge
    set type 480 charge -0.16  # "Pyridazine C4"
Setting atom values ...
  0 settings made for charge
    set type 481 charge -0.009  # "Pyridazine HC3"
Setting atom values ...
  0 settings made for charge
    set type 482 charge 0.122  # "Pyridazine HC4"
Setting atom values ...
  0 settings made for charge
    set type 483 charge -0.239  # "Pyrrole N"
Setting atom values ...
  0 settings made for charge
    set type 484 charge -0.163  # "Pyrrole C2"
Setting atom values ...
  0 settings made for charge
    set type 485 charge -0.149  # "Pyrrole C3"
Setting atom values ...
  0 settings made for charge
    set type 486 charge 0.317  # "Pyrrole HN"
Setting atom values ...
  0 settings made for charge
    set type 487 charge 0.155  # "Pyrrole HC2"
Setting atom values ...
  0 settings made for charge
    set type 488 charge 0.118  # "Pyrrole HC3"
Setting atom values ...
  0 settings made for charge
    set type 489 charge -0.059  # "Pyrazole N1"
Setting atom values ...
  0 settings made for charge
    set type 490 charge -0.491  # "Pyrazole N2"
Setting atom values ...
  0 settings made for charge
    set type 491 charge 0.246  # "Pyrazole C3"
Setting atom values ...
  0 settings made for charge
    set type 492 charge -0.32  # "Pyrazole C4"
Setting atom values ...
  0 settings made for charge
    set type 493 charge -0.034  # "Pyrazole C5"
Setting atom values ...
  0 settings made for charge
    set type 494 charge 0.301  # "Pyrazole HN1"
Setting atom values ...
  0 settings made for charge
    set type 495 charge 0.072  # "Pyrazole HC3"
Setting atom values ...
  0 settings made for charge
    set type 496 charge 0.15  # "Pyrazole HC4"
Setting atom values ...
  0 settings made for charge
    set type 497 charge 0.135  # "Pyrazole HC5"
Setting atom values ...
  0 settings made for charge
    set type 498 charge -0.257  # "Imidazole N1"
Setting atom values ...
  16 settings made for charge
    set type 499 charge 0.275  # "Imidazole C2"
Setting atom values ...
  8 settings made for charge
    set type 500 charge -0.563  # "Imidazole N3"
Setting atom values ...
  0 settings made for charge
    set type 501 charge 0.185  # "Imidazole C4"
Setting atom values ...
  0 settings made for charge
    set type 502 charge -0.286  # "Imidazole C5"
Setting atom values ...
  16 settings made for charge
    set type 503 charge 0.306  # "Imidazole HN1"
Setting atom values ...
  0 settings made for charge
    set type 504 charge 0.078  # "Imidazole HC2"
Setting atom values ...
  8 settings made for charge
    set type 505 charge 0.075  # "Imidazole HC4"
Setting atom values ...
  8 settings made for charge
    set type 506 charge 0.187  # "Imidazole HC5"
Setting atom values ...
  8 settings made for charge
    set type 507 charge -0.19  # "Furan O"
Setting atom values ...
  0 settings made for charge
    set type 508 charge -0.019  # "Furan C2"
Setting atom values ...
  0 settings made for charge
    set type 509 charge -0.154  # "Furan C3"
Setting atom values ...
  0 settings made for charge
    set type 510 charge 0.142  # "Furan HC2"
Setting atom values ...
  0 settings made for charge
    set type 511 charge 0.126  # "Furan HC3"
Setting atom values ...
  0 settings made for charge
    set type 512 charge -0.257  # "Oxazole O"
Setting atom values ...
  0 settings made for charge
    set type 513 charge 0.511  # "Oxazole C2"
Setting atom values ...
  0 settings made for charge
    set type 514 charge -0.59  # "Oxazole N"
Setting atom values ...
  0 settings made for charge
    set type 515 charge 0.169  # "Oxazole C4"
Setting atom values ...
  0 settings made for charge
    set type 516 charge -0.148  # "Oxazole C5"
Setting atom values ...
  0 settings made for charge
    set type 517 charge 0.043  # "Oxazole HC2"
Setting atom values ...
  0 settings made for charge
    set type 518 charge 0.091  # "Oxazole HC4"
Setting atom values ...
  0 settings made for charge
    set type 519 charge 0.181  # "Oxazole HC5"
Setting atom values ...
  0 settings made for charge
    set type 520 charge -0.122  # "Isoxazole O"
Setting atom values ...
  0 settings made for charge
    set type 521 charge -0.413  # "Isoxazole N"
Setting atom values ...
  0 settings made for charge
    set type 522 charge 0.405  # "Isoxazole C3"
Setting atom values ...
  0 settings made for charge
    set type 523 charge -0.455  # "Isoxazole C4"
Setting atom values ...
  0 settings made for charge
    set type 524 charge 0.25  # "Isoxazole C5"
Setting atom values ...
  0 settings made for charge
    set type 525 charge 0.053  # "Isoxazole HC3"
Setting atom values ...
  0 settings made for charge
    set type 526 charge 0.184  # "Isoxazole HC4"
Setting atom values ...
  0 settings made for charge
    set type 527 charge 0.098  # "Isoxazole HC5"
Setting atom values ...
  0 settings made for charge
    set type 528 charge -0.5  # "Indole N1"
Setting atom values ...
  0 settings made for charge
    set type 529 charge 0.001  # "Indole C2"
Setting atom values ...
  0 settings made for charge
    set type 530 charge -0.39  # "Indole C3"
Setting atom values ...
  0 settings made for charge
    set type 531 charge -0.27  # "Indole C4"
Setting atom values ...
  0 settings made for charge
    set type 532 charge -0.127  # "Indole C5"
Setting atom values ...
  0 settings made for charge
    set type 533 charge -0.108  # "Indole C6"
Setting atom values ...
  0 settings made for charge
    set type 534 charge -0.258  # "Indole C7"
Setting atom values ...
  0 settings made for charge
    set type 535 charge 0.22  # "Indole C8"
Setting atom values ...
  0 settings made for charge
    set type 536 charge 0.225  # "Indole C9"
Setting atom values ...
  0 settings made for charge
    set type 537 charge 0.376  # "Indole HN1"
Setting atom values ...
  0 settings made for charge
    set type 538 charge 0.147  # "Indole HC2"
Setting atom values ...
  0 settings made for charge
    set type 539 charge 0.172  # "Indole HC3"
Setting atom values ...
  0 settings made for charge
    set type 540 charge 0.155  # "Indole HC4"
Setting atom values ...
  0 settings made for charge
    set type 541 charge 0.107  # "Indole HC5"
Setting atom values ...
  0 settings made for charge
    set type 542 charge 0.11  # "Indole HC6"
Setting atom values ...
  0 settings made for charge
    set type 543 charge 0.14  # "Indole HC7"
Setting atom values ...
  0 settings made for charge
    set type 544 charge -0.694  # "Quinoline N1"
Setting atom values ...
  0 settings made for charge
    set type 545 charge 0.425  # "Quinoline C2"
Setting atom values ...
  0 settings made for charge
    set type 546 charge -0.359  # "Quinoline C3"
Setting atom values ...
  0 settings made for charge
    set type 547 charge -0.008  # "Quinoline C4"
Setting atom values ...
  0 settings made for charge
    set type 548 charge -0.197  # "Quinoline C5"
Setting atom values ...
  0 settings made for charge
    set type 549 charge -0.112  # "Quinoline C6"
Setting atom values ...
  0 settings made for charge
    set type 550 charge -0.07  # "Quinoline C7"
Setting atom values ...
  0 settings made for charge
    set type 551 charge -0.307  # "Quinoline C8"
Setting atom values ...
  0 settings made for charge
    set type 552 charge 0.563  # "Quinoline C9"
Setting atom values ...
  0 settings made for charge
    set type 553 charge -0.051  # "Quinoline C10"
Setting atom values ...
  0 settings made for charge
    set type 554 charge 0.028  # "Quinoline HC2"
Setting atom values ...
  0 settings made for charge
    set type 555 charge 0.146  # "Quinoline HC3"
Setting atom values ...
  0 settings made for charge
    set type 556 charge 0.119  # "Quinoline HC4"
Setting atom values ...
  0 settings made for charge
    set type 557 charge 0.133  # "Quinoline HC5"
Setting atom values ...
  0 settings made for charge
    set type 558 charge 0.113  # "Quinoline HC6"
Setting atom values ...
  0 settings made for charge
    set type 559 charge 0.114  # "Quinoline HC7"
Setting atom values ...
  0 settings made for charge
    set type 560 charge 0.157  # "Quinoline HC8"
Setting atom values ...
  0 settings made for charge
    set type 561 charge -0.76  # "Purine N1"
Setting atom values ...
  0 settings made for charge
    set type 562 charge 0.679  # "Purine C2"
Setting atom values ...
  0 settings made for charge
    set type 563 charge -0.788  # "Purine N3"
Setting atom values ...
  0 settings made for charge
    set type 564 charge 0.736  # "Purine C4"
Setting atom values ...
  0 settings made for charge
    set type 565 charge 0.038  # "Purine C5"
Setting atom values ...
  0 settings made for charge
    set type 566 charge 0.343  # "Purine C6"
Setting atom values ...
  0 settings made for charge
    set type 567 charge -0.642  # "Purine N7"
Setting atom values ...
  0 settings made for charge
    set type 568 charge 0.452  # "Purine C8"
Setting atom values ...
  0 settings made for charge
    set type 569 charge -0.682  # "Purine N9"
Setting atom values ...
  0 settings made for charge
    set type 570 charge 0.024  # "Purine HC2"
Setting atom values ...
  0 settings made for charge
    set type 571 charge 0.101  # "Purine HC6"
Setting atom values ...
  0 settings made for charge
    set type 572 charge 0.086  # "Purine HC8"
Setting atom values ...
  0 settings made for charge
    set type 573 charge 0.413  # "Purine HN9"
Setting atom values ...
  0 settings made for charge
    set type 574 charge -0.03  # "Thiazole S"
Setting atom values ...
  0 settings made for charge
    set type 575 charge 0.242  # "Thiazole C2"
Setting atom values ...
  0 settings made for charge
    set type 576 charge -0.515  # "Thiazole N"
Setting atom values ...
  0 settings made for charge
    set type 577 charge 0.228  # "Thiazole C4"
Setting atom values ...
  0 settings made for charge
    set type 578 charge -0.299  # "Thiazole C5"
Setting atom values ...
  0 settings made for charge
    set type 579 charge 0.101  # "Thiazole HC2"
Setting atom values ...
  0 settings made for charge
    set type 580 charge 0.068  # "Thiazole HC4"
Setting atom values ...
  0 settings made for charge
    set type 581 charge 0.205  # "Thiazole HC5"
Setting atom values ...
  0 settings made for charge
    set type 582 charge -0.951  # "1,3,5-Triazine N"
Setting atom values ...
  0 settings made for charge
    set type 583 charge 0.965  # "1,3,5-Triazine CH"
Setting atom values ...
  0 settings made for charge
    set type 584 charge -0.014  # "1,3,5-Triazine CH"
Setting atom values ...
  0 settings made for charge
    set type 585 charge 0.13  # "Serotonin C5-OH"
Setting atom values ...
  0 settings made for charge
    set type 586 charge 0.052  # "Serotonin CH2 on C3"
Setting atom values ...
  0 settings made for charge
    set type 587 charge -0.599  # "1,10-Phenanthroline N"
Setting atom values ...
  0 settings made for charge
    set type 588 charge 0.392  # "1,10-Phenanthroline C2"
Setting atom values ...
  0 settings made for charge
    set type 589 charge -0.348  # "1,10-Phenanthroline C3"
Setting atom values ...
  0 settings made for charge
    set type 590 charge 0.02  # "1,10-Phenanthroline C4"
Setting atom values ...
  0 settings made for charge
    set type 591 charge -0.042  # "1,10-Phenanthroline C12"
Setting atom values ...
  0 settings made for charge
    set type 592 charge 0.347  # "1,10-Phenanthroline C11"
Setting atom values ...
  0 settings made for charge
    set type 593 charge -0.196  # "1,10-Phenanthroline C5"
Setting atom values ...
  0 settings made for charge
    set type 594 charge 0.032  # "1,10-Phenanthroline HC2"
Setting atom values ...
  0 settings made for charge
    set type 595 charge 0.146  # "1,10-Phenanthroline HC3"
Setting atom values ...
  0 settings made for charge
    set type 596 charge 0.108  # "1,10-Phenanthroline HC4"
Setting atom values ...
  0 settings made for charge
    set type 597 charge 0.14  # "1,10-Phenanthroline HC5"
Setting atom values ...
  0 settings made for charge
    set type 598 charge 0.122  # "1-Methylimidazole N1"
Setting atom values ...
  0 settings made for charge
    set type 599 charge 0.166  # "1-Methylimidazole C2"
Setting atom values ...
  0 settings made for charge
    set type 600 charge -0.58  # "1-Methylimidazole N3"
Setting atom values ...
  0 settings made for charge
    set type 601 charge 0.173  # "1-Methylimidazole C4"
Setting atom values ...
  0 settings made for charge
    set type 602 charge -0.395  # "1-Methylimidazole C5"
Setting atom values ...
  0 settings made for charge
    set type 603 charge -0.199  # "1-Methylimidazole CH3-"
Setting atom values ...
  0 settings made for charge
    set type 604 charge 0.118  # "1-Methylimidazole HC2"
Setting atom values ...
  0 settings made for charge
    set type 605 charge 0.093  # "1-Methylimidazole HC4"
Setting atom values ...
  0 settings made for charge
    set type 606 charge 0.208  # "1-Methylimidazole HC5"
Setting atom values ...
  0 settings made for charge
    set type 607 charge 0.098  # "1-Methylimidazole CH3-"
Setting atom values ...
  0 settings made for charge
    set type 608 charge -0.139  # "1-Et Imidazole RCH2-"
Setting atom values ...
  0 settings made for charge
    set type 609 charge -0.079  # "1-iPr Imidazole R2CH-"
Setting atom values ...
  0 settings made for charge
    set type 610 charge 0.099  # "1-MeO-Me-Imidazole CH2"
Setting atom values ...
  0 settings made for charge
    set type 611 charge -0.168  # "2-Me Pyridine CH3"
Setting atom values ...
  0 settings made for charge
    set type 612 charge -0.108  # "2-Et Pyridine CH2"
Setting atom values ...
  0 settings made for charge
    set type 613 charge -0.189  # "3-Me Pyridazine CH3"
Setting atom values ...
  0 settings made for charge
    set type 614 charge -0.129  # "3-Et Pyridazine CH2"
Setting atom values ...
  0 settings made for charge
    set type 615 charge -0.169  # "4-Me Pyrimidine CH3"
Setting atom values ...
  0 settings made for charge
    set type 616 charge -0.109  # "4-Et Pyrimidine CH2"
Setting atom values ...
  0 settings made for charge
    set type 617 charge -0.138  # "2-Me Pyrazine CH3"
Setting atom values ...
  0 settings made for charge
    set type 618 charge -0.078  # "2-Et Pyrazine CH2"
Setting atom values ...
  0 settings made for charge
    set type 619 charge -0.025  # "2-Me Pyrrole CH3"
Setting atom values ...
  0 settings made for charge
    set type 620 charge 0.035  # "2-Et Pyrrole CH2"
Setting atom values ...
  0 settings made for charge
    set type 621 charge -0.038  # "2-Me Furan CH3"
Setting atom values ...
  0 settings made for charge
    set type 622 charge 0.022  # "2-Et Furan CH2"
Setting atom values ...
  0 settings made for charge
    set type 623 charge -0.334  # "6-Mercaptopurine SH"
Setting atom values ...
  0 settings made for charge
    set type 624 charge 0.255  # "6-Mercaptopurine SH"
Setting atom values ...
  0 settings made for charge
    set type 625 charge 0.523  # "6-Mercaptopurine C6"
Setting atom values ...
  0 settings made for charge
    set type 626 charge 0.5  # "Beta-Lactam N-C=O"
Setting atom values ...
  0 settings made for charge
    set type 627 charge -0.14  # "Beta-Lactam N-C=O"
Setting atom values ...
  0 settings made for charge
    set type 628 charge 0.2275  # "Penicillin CH-N"
Setting atom values ...
  0 settings made for charge
    set type 629 charge 0.14  # "Penicillin CH-CO"
Setting atom values ...
  0 settings made for charge
    set type 630 charge -0.008  # "3-Me Indole CH3"
Setting atom values ...
  0 settings made for charge
    set type 631 charge 0.588  # "2-Phenyl Pyridine C2"
Setting atom values ...
  0 settings made for charge
    set type 632 charge -0.103  # "2-Phenyl Pyridine C2'"
Setting atom values ...
  0 settings made for charge
    set type 633 charge -0.332  # "2-Phenyl Pyridine C3"
Setting atom values ...
  0 settings made for charge
    set type 634 charge 0.04  # "2-Phenyl Pyridine C3'"
Setting atom values ...
  0 settings made for charge
    set type 635 charge 0.342  # "2-Phenyl Pyridine C4"
Setting atom values ...
  0 settings made for charge
    set type 636 charge -0.05  # "2-Phenyl Pyridine C4'"
Setting atom values ...
  0 settings made for charge
    set type 637 charge -0.205  # "Diphenyl Thioether S"
Setting atom values ...
  0 settings made for charge
    set type 638 charge 3.0  # "Actinium Ion Ac+3"
Setting atom values ...
  0 settings made for charge
    set type 639 charge 4.0  # "Thorium Ion Th+4"
Setting atom values ...
  0 settings made for charge
    set type 640 charge 3.0  # "Americium Ion Am+3"
Setting atom values ...
  0 settings made for charge
    set type 641 charge 0.619  # "t-Butyl Cation C+"
Setting atom values ...
  0 settings made for charge
    set type 642 charge -0.395  # "t-Butyl Cation CH3-"
Setting atom values ...
  0 settings made for charge
    set type 643 charge 0.174  # "t-Butyl Cation CH3-"
Setting atom values ...
  0 settings made for charge
    set type 644 charge 3.0  # "Lanthanum Ion La+3"
Setting atom values ...
  0 settings made for charge
    set type 645 charge 3.0  # "Neodymium Ion Nd+3"
Setting atom values ...
  0 settings made for charge
    set type 646 charge 3.0  # "Europium Ion Eu+3"
Setting atom values ...
  0 settings made for charge
    set type 647 charge 3.0  # "Gadolinium Ion Gd+3"
Setting atom values ...
  0 settings made for charge
    set type 648 charge 3.0  # "Ytterbium Ion Yb+3"
Setting atom values ...
  0 settings made for charge
    set type 649 charge -0.344  # "Cl..CH3..Cl- Sn2 TS"
Setting atom values ...
  0 settings made for charge
    set type 650 charge -0.628  # "Cl..CH3..Cl- Sn2 TS"
Setting atom values ...
  0 settings made for charge
    set type 651 charge 0.2  # "Cl..CH3..Cl- Sn2 TS"
Setting atom values ...
  0 settings made for charge
    set type 652 charge -0.12  # "Cyclopropane -CH2-"
Setting atom values ...
  0 settings made for charge
    set type 653 charge -0.06  # "Cyclopropane -CHR-"
Setting atom values ...
  0 settings made for charge
    set type 654 charge 0.0  # "Cyclopropane -CR2-"
Setting atom values ...
  0 settings made for charge
    set type 655 charge -0.23  # "Cyclopentadienyl Anion"
Setting atom values ...
  0 settings made for charge
    set type 656 charge 0.03  # "Cyclopentadienyl Anion"
Setting atom values ...
  0 settings made for charge
    set type 657 charge -0.099  # "Cyclopentadienyl Radical"
Setting atom values ...
  0 settings made for charge
    set type 658 charge 0.099  # "Cyclopentadienyl Radical"
Setting atom values ...
  0 settings made for charge
    set type 659 charge 0.22  # "Fluorobenzene CF"
Setting atom values ...
  0 settings made for charge
    set type 660 charge -0.22  # "Fluorobenzene CF"
Setting atom values ...
  0 settings made for charge
    set type 661 charge 0.13  # "Hexafluorobenzene CF"
Setting atom values ...
  0 settings made for charge
    set type 662 charge -0.13  # "Hexafluorobenzene CF"
Setting atom values ...
  0 settings made for charge
    set type 663 charge -0.22  # "Bromide -CH2-Br (UA)"
Setting atom values ...
  0 settings made for charge
    set type 664 charge 0.22  # "Bromide -CH2-Br (UA)"
Setting atom values ...
  0 settings made for charge
    set type 665 charge 0.15  # "TrifluoroMeBenzene C-CF3"
Setting atom values ...
  0 settings made for charge
    set type 666 charge 0.45  # "TrifluoroMeBenzene CF3-"
Setting atom values ...
  0 settings made for charge
    set type 667 charge -0.2  # "TrifluoroMeBenzene CF3-"
Setting atom values ...
  0 settings made for charge
    set type 668 charge 0.2  # "Difluorobenzene CF"
Setting atom values ...
  0 settings made for charge
    set type 669 charge -0.2  # "Difluorobenzene CF"
Setting atom values ...
  0 settings made for charge
    set type 670 charge 0.2  # "Bromobenzene CBr"
Setting atom values ...
  0 settings made for charge
    set type 671 charge -0.2  # "Bromobenzene CBr"
Setting atom values ...
  0 settings made for charge
    set type 672 charge 0.1  # "Iodobenzene CI"
Setting atom values ...
  0 settings made for charge
    set type 673 charge -0.1  # "Iodobenzene CI"
Setting atom values ...
  0 settings made for charge
    set type 674 charge 0.055  # "cProp/cBut Benzene C-Ar"
Setting atom values ...
  0 settings made for charge
    set type 675 charge -0.22  # "Thiophenol SH"
Setting atom values ...
  0 settings made for charge
    set type 676 charge 0.065  # "Thiophenol C-SH"
Setting atom values ...
  0 settings made for charge
    set type 677 charge 0.013  # "Benzamidine CG"
Setting atom values ...
  0 settings made for charge
    set type 678 charge -0.106  # "Benzamidine CD"
Setting atom values ...
  0 settings made for charge
    set type 679 charge -0.09  # "Benzamidine CE"
Setting atom values ...
  0 settings made for charge
    set type 680 charge -0.119  # "Benzamidine CZ"
Setting atom values ...
  0 settings made for charge
    set type 681 charge 0.141  # "Benzamidine HCD"
Setting atom values ...
  0 settings made for charge
    set type 682 charge 0.129  # "Benzamidine HCE"
Setting atom values ...
  0 settings made for charge
    set type 683 charge 0.827  # "Benzamidine C+"
Setting atom values ...
  0 settings made for charge
    set type 684 charge -0.885  # "Benzamidine -NH2"
Setting atom values ...
  0 settings made for charge
    set type 685 charge 0.426  # "Benzamidine H1-N"
Setting atom values ...
  0 settings made for charge
    set type 686 charge 0.465  # "Benzamidine H2-N"
Setting atom values ...
  0 settings made for charge
    set type 687 charge 0.119  # "Benzamidine HCG"
Setting atom values ...
  0 settings made for charge
    set type 688 charge -0.02  # "Neutral MeGdn CH3-"
Setting atom values ...
  0 settings made for charge
    set type 689 charge 0.04  # "Neutral ARG CD"
Setting atom values ...
  0 settings made for charge
    set type 690 charge -0.62  # "Neutral ARG NE"
Setting atom values ...
  0 settings made for charge
    set type 691 charge -0.785  # "Neutral ARG N1 (HN=C)"
Setting atom values ...
  0 settings made for charge
    set type 692 charge -0.785  # "Neutral ARG N2 (H2N-C)"
Setting atom values ...
  0 settings made for charge
    set type 693 charge 0.55  # "Neutral ARG CZ (>C=)"
Setting atom values ...
  0 settings made for charge
    set type 694 charge -0.56  # "Alkyl Nitrile -CN"
Setting atom values ...
  0 settings made for charge
    set type 695 charge 0.46  # "Alkyl Nitrile -CN"
Setting atom values ...
  0 settings made for charge
    set type 696 charge -0.08  # "Acetonitrile CH3-CN"
Setting atom values ...
  0 settings made for charge
    set type 697 charge -0.02  # "Alkyl Nitrile RCH2-CN"
Setting atom values ...
  0 settings made for charge
    set type 698 charge 0.04  # "Alkyl Nitrile R2CH-CN"
Setting atom values ...
  0 settings made for charge
    set type 699 charge 0.1  # "Alkyl Nitrile R3C-CN"
Setting atom values ...
  0 settings made for charge
    set type 700 charge 0.06  # "Alkyl Nitrile H-C-CN"
Setting atom values ...
  0 settings made for charge
    set type 701 charge 0.54  # "Nitroalkane -NO2"
Setting atom values ...
  0 settings made for charge
    set type 702 charge -0.37  # "Nitroalkane -NO2"
Setting atom values ...
  0 settings made for charge
    set type 703 charge 0.02  # "Nitromethane CH3-NO2"
Setting atom values ...
  0 settings made for charge
    set type 704 charge 0.06  # "Nitroalkane H-C-NO2"
Setting atom values ...
  0 settings made for charge
    set type 705 charge 0.08  # "Nitroalkane RCH2-NO2"
Setting atom values ...
  0 settings made for charge
    set type 706 charge 0.14  # "Nitroalkane R2CH-NO2"
Setting atom values ...
  0 settings made for charge
    set type 707 charge 0.2  # "Nitroalkane R3C-NO2"
Setting atom values ...
  0 settings made for charge
    set type 708 charge 0.65  # "Nitrobenzene -NO2"
Setting atom values ...
  0 settings made for charge
    set type 709 charge 0.09  # "Nitrobenzene C-NO2"
Setting atom values ...
  0 settings made for charge
    set type 710 charge 0.035  # "Benzonitrile -CH2-"
Setting atom values ...
  0 settings made for charge
    set type 711 charge -0.9  # "Neutral Benzamidine N"
Setting atom values ...
  0 settings made for charge
    set type 712 charge -0.5  # "Propylene Carbonate C=O"
Setting atom values ...
  0 settings made for charge
    set type 713 charge 0.86  # "Propylene Carbonate C=O"
Setting atom values ...
  0 settings made for charge
    set type 714 charge -0.45  # "Propylene Carbonate C-O"
Setting atom values ...
  0 settings made for charge
    set type 715 charge 0.21  # "Propylene Carbonate CH2"
Setting atom values ...
  0 settings made for charge
    set type 716 charge 0.16  # "Propylene Carbonate CH"
Setting atom values ...
  0 settings made for charge
    set type 717 charge -0.1  # "Propylene Carbonate CH3"
Setting atom values ...
  0 settings made for charge
    set type 718 charge 0.03  # "Propylene Carbonate CH2"
Setting atom values ...
  0 settings made for charge
    set type 719 charge 0.03  # "Propylene Carbonate CH"
Setting atom values ...
  0 settings made for charge
    set type 720 charge 0.06  # "Propylene Carbonate CH3"
Setting atom values ...
  0 settings made for charge
    set type 721 charge -0.78  # "GTP O-(POn)2"
Setting atom values ...
  0 settings made for charge
    set type 722 charge 0.9684  # "Phosphonium R4P+"
Setting atom values ...
  0 settings made for charge
    set type 723 charge -0.5081  # "Phosphonium CH3-PR3+"
Setting atom values ...
  0 settings made for charge
    set type 724 charge -0.008  # "Phosphonium RCH2-PR3+"
Setting atom values ...
  0 settings made for charge
    set type 725 charge 0.172  # "Phosphonium CH3-PR3+"
Setting atom values ...
  0 settings made for charge
    set type 726 charge 1.34  # "Hexafluorophosphate Ion"
Setting atom values ...
  0 settings made for charge
    set type 727 charge -0.39  # "Hexafluorophosphate Ion"
Setting atom values ...
  0 settings made for charge
    set type 728 charge 0.794  # "Nitrate Ion NO3-"
Setting atom values ...
  0 settings made for charge
    set type 729 charge -0.598  # "Nitrate Ion NO3-"
Setting atom values ...
  0 settings made for charge
    set type 730 charge -0.9  # "Amine RNH2"
Setting atom values ...
  0 settings made for charge
    set type 731 charge -0.78  # "Amine R2NH"
Setting atom values ...
  0 settings made for charge
    set type 732 charge -0.63  # "Amine R3N"
Setting atom values ...
  0 settings made for charge
    set type 733 charge 0.0  # "Amine CH3-NH2"
Setting atom values ...
  0 settings made for charge
    set type 734 charge 0.02  # "Amine CH3-NHR"
Setting atom values ...
  0 settings made for charge
    set type 735 charge 0.03  # "Amine CH3-NR2"
Setting atom values ...
  0 settings made for charge
    set type 736 charge 0.06  # "Amine RCH2-NH2"
Setting atom values ...
  0 settings made for charge
    set type 737 charge 0.08  # "Amine RCH2-NHR"
Setting atom values ...
  0 settings made for charge
    set type 738 charge 0.09  # "Amine RCH2-NR2"
Setting atom values ...
  0 settings made for charge
    set type 739 charge 0.36  # "Amine RNH2"
Setting atom values ...
  0 settings made for charge
    set type 740 charge 0.38  # "Amine R2NH"
Setting atom values ...
  0 settings made for charge
    set type 741 charge 0.06  # "Amine H-C-N"
Setting atom values ...
  0 settings made for charge
    set type 742 charge 0.12  # "Amine R2CH-NH2"
Setting atom values ...
  0 settings made for charge
    set type 743 charge 0.18  # "Amine R3C-NH2"
Setting atom values ...
  0 settings made for charge
    set type 744 charge 0.14  # "Amine R2CH-NHR"
Setting atom values ...
  0 settings made for charge
    set type 745 charge 0.15  # "Amine R2CH-NR2"
Setting atom values ...
  0 settings made for charge
    set type 746 charge 0.18  # "Aniline C-NH2"
Setting atom values ...
  0 settings made for charge
    set type 747 charge 0.2  # "N-Me Aniline C-NHR"
Setting atom values ...
  0 settings made for charge
    set type 748 charge 0.21  # "N-DiMe Aniline C-NR2"
Setting atom values ...
  0 settings made for charge
    set type 749 charge 0.115  # "Benzyl Amine -CH2NH2"
Setting atom values ...
  0 settings made for charge
    set type 750 charge 0.175  # "Benzyl Amine -CHRNH2"
Setting atom values ...
  0 settings made for charge
    set type 751 charge 0.235  # "Benzyl Amine -CR2NH2"
Setting atom values ...
  0 settings made for charge
    set type 752 charge 0.195  # "Benzyl Ether -CH2OR"
Setting atom values ...
  0 settings made for charge
    set type 753 charge 0.1525  # "Benzyl Sulfide -CH2SH"
Setting atom values ...
  0 settings made for charge
    set type 754 charge 0.135  # "Benzyl Amine -CH2NHR"
Setting atom values ...
  0 settings made for charge
    set type 755 charge -0.21  # "Alkyne HCC-"
Setting atom values ...
  0 settings made for charge
    set type 756 charge 0.2  # "Alkyne HCC-"
Setting atom values ...
  0 settings made for charge
    set type 757 charge 0.01  # "Alkyne RCCH R w/ 2/3 H"
Setting atom values ...
  0 settings made for charge
    set type 758 charge 0.01  # "Alkyne RCCH R w/ 1 H"
Setting atom values ...
  0 settings made for charge
    set type 759 charge 0.01  # "Alkyne RCCH R w/ O H/Ph"
Setting atom values ...
  0 settings made for charge
    set type 760 charge 0.06  # "Alkyne H-C-CC-"
Setting atom values ...
  0 settings made for charge
    set type 761 charge 0.45  # "A & G Sugar C1'"
Setting atom values ...
  0 settings made for charge
    set type 762 charge 0.48  # "C Sugar C1'"
Setting atom values ...
  0 settings made for charge
    set type 763 charge 0.51  # "U & T Sugar C1'"
Setting atom values ...
  0 settings made for charge
    set type 764 charge -0.655  # "Sugar O5'"
Setting atom values ...
  0 settings made for charge
    set type 765 charge 0.39  # "Sugar H3' (-OH)"
Setting atom values ...
  0 settings made for charge
    set type 766 charge -0.5  # "A & G Nucleoside N9"
Setting atom values ...
  0 settings made for charge
    set type 767 charge -0.56  # "C Nucleoside N1"
Setting atom values ...
  0 settings made for charge
    set type 768 charge -0.6  # "U & T Nucleoside N1"
Setting atom values ...
  0 settings made for charge
    set type 769 charge 0.0  # "Alkyne RCCR"
Setting atom values ...
  0 settings made for charge
    set type 770 charge -0.1  # "Ammonium R3NH+"
Setting atom values ...
  0 settings made for charge
    set type 771 charge 0.29  # "Ammonium R3NH+"
Setting atom values ...
  0 settings made for charge
    set type 772 charge 0.09  # "Ammonium CH3-NHR2+"
Setting atom values ...
  16 settings made for charge
    set type 773 charge 0.15  # "Ammonium RCH2-NHR2+"
Setting atom values ...
  0 settings made for charge
    set type 774 charge 0.21  # "Ammonium R2CH-NHR2+"
Setting atom values ...
  0 settings made for charge
    set type 775 charge 0.27  # "Ammonium R3C-NHR2+"
Setting atom values ...
  0 settings made for charge
    set type 776 charge 0.096  # "2-Phenyl Furan C2"
Setting atom values ...
  0 settings made for charge
    set type 777 charge -0.039  # "2-Phenyl Furan C3"
Setting atom values ...
  0 settings made for charge
    set type 778 charge 0.027  # "2-Phenyl Furan C2'"
Setting atom values ...
  0 settings made for charge
    set type 779 charge 0.011  # "2-Phenyl Furan C3'"
Setting atom values ...
  0 settings made for charge
    set type 780 charge 0.074  # "GLY Zwitterion HA"
Setting atom values ...
  0 settings made for charge
    set type 781 charge -0.029  # "GLY Zwitterion CA"
Setting atom values ...
  0 settings made for charge
    set type 782 charge 0.7  # "GLY Zwitterion C"
Setting atom values ...
  0 settings made for charge
    set type 783 charge -0.352  # "GLY Zwitterion N"
Setting atom values ...
  0 settings made for charge
    set type 784 charge -0.709  # "GLY Zwitterion O"
Setting atom values ...
  0 settings made for charge
    set type 785 charge 0.317  # "GLY Zwitterion HN"
Setting atom values ...
  0 settings made for charge
    set type 786 charge -0.22  # "Alkyl Fluoride C-F"
Setting atom values ...
  0 settings made for charge
    set type 787 charge 0.02  # "Alkyl Fluoride RCH2-F"
Setting atom values ...
  0 settings made for charge
    set type 788 charge 0.1  # "Alkyl Fluoride H-C-F"
Setting atom values ...
  0 settings made for charge
    set type 789 charge 0.12  # "Alkyl Fluoride R2CH-F"
Setting atom values ...
  0 settings made for charge
    set type 790 charge 0.22  # "Alkyl Fluoride R3C-F"
Setting atom values ...
  0 settings made for charge
    set type 791 charge 0.36  # "Perfluoroalkane CF3-"
Setting atom values ...
  0 settings made for charge
    set type 792 charge 0.24  # "Perfluoroalkane -CF2-"
Setting atom values ...
  0 settings made for charge
    set type 793 charge 0.12  # "Perfluoroalkane >CF-"
Setting atom values ...
  0 settings made for charge
    set type 794 charge 0.48  # "Tetrafluoromethane CF4"
Setting atom values ...
  0 settings made for charge
    set type 795 charge -0.12  # "Perfluoroalkane C-F"
Setting atom values ...
  0 settings made for charge
    set type 796 charge 0.25  # "DifluoroMeBenzene -CHF2"
Setting atom values ...
  0 settings made for charge
    set type 797 charge 0.15  # "DifluoroMeBenzene -CHF2"
Setting atom values ...
  0 settings made for charge
    set type 798 charge -0.08  # "Fluoroacetate FCH2-COO-"
Setting atom values ...
  0 settings made for charge
    set type 799 charge -0.106  # "Chloroacetate ClCH2-COO-"
Setting atom values ...
  0 settings made for charge
    set type 800 charge -0.2  # "Alkyl Chloride C-Cl"
Setting atom values ...
  0 settings made for charge
    set type 801 charge -0.006  # "Alkyl Chloride RCH2-Cl"
Setting atom values ...
  0 settings made for charge
    set type 802 charge 0.103  # "Alkyl Chloride H-C-Cl"
Setting atom values ...
  0 settings made for charge
    set type 803 charge 0.097  # "Alkyl Chloride R2CH-Cl"
Setting atom values ...
  0 settings made for charge
    set type 804 charge 0.2  # "Alkyl Chloride R3C-Cl"
Setting atom values ...
  0 settings made for charge
    set type 805 charge -0.2  # "Alkyl Bromide C-Br"
Setting atom values ...
  0 settings made for charge
    set type 806 charge -0.006  # "Alkyl Bromide RCH2-Br"
Setting atom values ...
  0 settings made for charge
    set type 807 charge 0.103  # "Alkyl Bromide H-C-Br"
Setting atom values ...
  0 settings made for charge
    set type 808 charge 0.097  # "Alkyl Bromide R2CH-Br"
Setting atom values ...
  0 settings made for charge
    set type 809 charge 0.2  # "Alkyl Bromide R3C-Br"
Setting atom values ...
  0 settings made for charge
    set type 810 charge -0.08  # "Acyl Fluoride F-C=O"
Setting atom values ...
  0 settings made for charge
    set type 811 charge -0.08  # "Acyl Chloride Cl-C=O"
Setting atom values ...
  0 settings made for charge
    set type 812 charge -0.08  # "Acyl Bromide Br-C=O"
Setting atom values ...
  0 settings made for charge
    set type 813 charge 0.1  # "Trifluoroanisole C-OCF3"
Setting atom values ...
  0 settings made for charge
    set type 814 charge -0.25  # "Trifluoroanisole -OCF3"
Setting atom values ...
  0 settings made for charge
    set type 815 charge 0.6  # "Trifluoroanisole -OCF3"
Setting atom values ...
  0 settings made for charge
    set type 816 charge -0.15  # "Trifluoroanisole -OCF3"
Setting atom values ...
  0 settings made for charge
    set type 817 charge -0.025  # "N-Me,N-PhAcetamide N"
Setting atom values ...
  0 settings made for charge
    set type 818 charge -0.045  # "N-Me,N-PhAcetamide Cipso"
Setting atom values ...
  0 settings made for charge
    set type 819 charge 0.145  # "Benzyl Amine -CH2NR2"
Setting atom values ...
  0 settings made for charge
    set type 820 charge 0.888  # "Alkyl Hydroxamic Acid C"
Setting atom values ...
  0 settings made for charge
    set type 821 charge 1.003  # "Aryl Hydroxamic Acid C"
Setting atom values ...
  0 settings made for charge
    set type 822 charge -0.658  # "Hydroxamic Acid C=O"
Setting atom values ...
  0 settings made for charge
    set type 823 charge -0.634  # "Hydroxamic Acid N"
Setting atom values ...
  0 settings made for charge
    set type 824 charge 0.411  # "Hydroxamic Acid HN"
Setting atom values ...
  0 settings made for charge
    set type 825 charge -0.442  # "Hydroxamic Acid OH"
Setting atom values ...
  0 settings made for charge
    set type 826 charge 0.435  # "Hydroxamic Acid OH"
Setting atom values ...
  0 settings made for charge
    set type 827 charge 0.225  # "Benzyl Ether -CHROR"
Setting atom values ...
  0 settings made for charge
    set type 828 charge 0.255  # "Benzyl Ether -CR2OR"
Setting atom values ...
  0 settings made for charge
    set type 829 charge -0.034  # "3-Phenyl Pyrrole C3"
Setting atom values ...
  0 settings made for charge
    set type 830 charge 0.003  # "3-Phenyl Pyrrole C3'"
Setting atom values ...
  0 settings made for charge
    set type 831 charge 0.3  # "4-Phenyl Imidazole C4"
Setting atom values ...
  0 settings made for charge
    set type 832 charge -0.04  # "4-Phenyl Imidazole C4'"
Setting atom values ...
  0 settings made for charge
    set type 833 charge -0.0575  # "Diphenylmethane Cipso"
Setting atom values ...
  0 settings made for charge
    set type 834 charge 2.0  # "Zinc Ion Zn+2"
Setting atom values ...
  0 settings made for charge
    set type 835 charge -0.07  # "Alkyl Iodide RCH2-I"
Setting atom values ...
  0 settings made for charge
    set type 836 charge 0.03  # "Alkyl Iodide R2CH-I"
Setting atom values ...
  0 settings made for charge
    set type 837 charge 0.13  # "Alkyl Iodide R3C-I"
Setting atom values ...
  0 settings made for charge
    set type 838 charge -0.13  # "Alkyl Iodide C-I"
Setting atom values ...
  0 settings made for charge
    set type 839 charge 0.1  # "Alkyl Iodide H-C-I"
Setting atom values ...
  0 settings made for charge
    set type 840 charge -0.685  # "N-Ph Sulfonamide -NHPh"
Setting atom values ...
  0 settings made for charge
    set type 841 charge 0.155  # "N-Ph Sulfonamide Cipso"
Setting atom values ...
  0 settings made for charge
    set type 842 charge -0.1  # "Benzoate C-COO-"
Setting atom values ...
  0 settings made for charge
    set type 843 charge -0.427  # "N-Phenyl Urea N"
Setting atom values ...
  0 settings made for charge
    set type 844 charge 0.218  # "N-Phenyl Urea Cipso"
Setting atom values ...
  0 settings made for charge
    set type 845 charge 0.6  # "Tertiary Amide -CO-NR2"
Setting atom values ...
  0 settings made for charge
    set type 846 charge -0.6  # "Tertiary Amide -CO-NR2"
Setting atom values ...
  0 settings made for charge
    set type 847 charge -0.36  # "Tertiary Amide -CO-NR2"
Setting atom values ...
  0 settings made for charge
    set type 848 charge 0.0  # "Tertiary Amide -NRCH3"
Setting atom values ...
  0 settings made for charge
    set type 849 charge 0.06  # "Tertiary Amide -NRCH2R"
Setting atom values ...
  0 settings made for charge
    set type 850 charge 0.12  # "Tertiary Amide -NRCHR2"
Setting atom values ...
  0 settings made for charge
    set type 851 charge 0.18  # "Tertiary Amide -NRCR3"
Setting atom values ...
  0 settings made for charge
    set type 852 charge 0.06  # "Tertiary Amide H-C-N"
Setting atom values ...
  0 settings made for charge
    set type 853 charge 0.57  # "Tertiary Formamide C=O"
Setting atom values ...
  0 settings made for charge
    set type 854 charge -0.57  # "Tertiary Formamide C=O"
Setting atom values ...
  0 settings made for charge
    set type 855 charge 0.0  # "Tertiary Formamide H-C=O"
Setting atom values ...
  0 settings made for charge
    set type 856 charge 0.02  # "B2-Peptide CA"
Setting atom values ...
  0 settings made for charge
    set type 857 charge -0.04  # "B3-Peptide CA Main/N-Ter"
Setting atom values ...
  0 settings made for charge
    set type 858 charge 0.0  # "B3-Pep CB GLY Main/C-Ter"
Setting atom values ...
  0 settings made for charge
    set type 859 charge 0.06  # "B3-Pep CB ALA Main/C-Ter"
Setting atom values ...
  0 settings made for charge
    set type 860 charge -0.07  # "B3-Pep CB PRO Main/C-Ter"
Setting atom values ...
  0 settings made for charge
    set type 861 charge -0.14  # "B3-Peptide CA C-Ter"
Setting atom values ...
  0 settings made for charge
    set type 862 charge 0.17  # "B3-Peptide CB ALA N-Ter"
Setting atom values ...
  0 settings made for charge
    set type 863 charge 0.11  # "B3-Peptide CB GLY N-Ter"
Setting atom values ...
  0 settings made for charge
    set type 864 charge 0.15  # "B3-Peptide CB PRO N-Ter"
Setting atom values ...
  0 settings made for charge
    set type 865 charge 0.17  # "B3-Peptide CE PRO N-Ter"
Setting atom values ...
  0 settings made for charge
    set type 866 charge 1.0  # "Alkyl Silane R4Si"
Setting atom values ...
  0 settings made for charge
    set type 867 charge 0.85  # "Alkyl Silane R3SiH"
Setting atom values ...
  0 settings made for charge
    set type 868 charge 0.7  # "Alkyl Silane R2SiH2"
Setting atom values ...
  0 settings made for charge
    set type 869 charge 0.55  # "Alkyl Silane RSiH3"
Setting atom values ...
  0 settings made for charge
    set type 870 charge -0.1  # "Alkyl Silane H-C-Si"
Setting atom values ...
  0 settings made for charge
    set type 871 charge -0.43  # "Methyl Silane CH3-Si"
Setting atom values ...
  0 settings made for charge
    set type 872 charge -0.37  # "Alkyl Silane RCH2-Si"
Setting atom values ...
  0 settings made for charge
    set type 873 charge -0.31  # "Alkyl Silane R2CH-Si"
Setting atom values ...
  0 settings made for charge
    set type 874 charge -0.25  # "Alkyl Silane R3C-Si"
Setting atom values ...
  0 settings made for charge
    set type 875 charge -1.0  # "Fluoride Ion (GBSA)"
Setting atom values ...
  0 settings made for charge
    set type 876 charge -1.0  # "Chloride Ion (GBSA)"
Setting atom values ...
  8 settings made for charge
    set type 877 charge -1.0  # "Bromide Ion (GBSA)"
Setting atom values ...
  0 settings made for charge
    set type 878 charge -1.0  # "Iodide Ion (GBSA)"
Setting atom values ...
  0 settings made for charge
    set type 879 charge 1.0  # "Lithium Ion (GBSA)"
Setting atom values ...
  0 settings made for charge
    set type 880 charge 1.0  # "Sodium Ion (GBSA)"
Setting atom values ...
  0 settings made for charge
    set type 881 charge 1.0  # "Potassium Ion (GBSA)"
Setting atom values ...
  0 settings made for charge
    set type 882 charge 1.0  # "Rubidium Ion (GBSA)"
Setting atom values ...
  0 settings made for charge
    set type 883 charge 1.0  # "Cesium Ion (GBSA)"
Setting atom values ...
  0 settings made for charge
    set type 884 charge 2.0  # "Magnesium Ion (GBSA)"
Setting atom values ...
  0 settings made for charge
    set type 885 charge 2.0  # "Calcium Ion (GBSA)"
Setting atom values ...
  0 settings made for charge
    set type 886 charge 2.0  # "Strontium Ion (GBSA)"
Setting atom values ...
  0 settings made for charge
    set type 887 charge 2.0  # "Barium Ion (GBSA)"
Setting atom values ...
  0 settings made for charge
    set type 888 charge -0.05  # "Ammonium CH3-NR3+"
Setting atom values ...
  0 settings made for charge
    set type 889 charge 0.05  # "Ammonium RCH2-NR3+"
Setting atom values ...
  0 settings made for charge
    set type 890 charge 0.15  # "Ammonium R2CH-NR3+"
Setting atom values ...
  0 settings made for charge
    set type 891 charge 0.25  # "Ammonium R3C-NR3+"
Setting atom values ...
  0 settings made for charge
    set type 892 charge 0.1  # "Ammonium CH3-NR3+"
Setting atom values ...
  0 settings made for charge
    set type 893 charge 0.115  # "Anilinium Ar-NR3+"
Setting atom values ...
  0 settings made for charge
    set type 894 charge 0.135  # "Anilinium C-NR3+"
Setting atom values ...
  0 settings made for charge
    set type 895 charge 0.015  # "Anilinium Ar-NHR2+"
Setting atom values ...
  0 settings made for charge
    set type 896 charge 0.155  # "Anilinium C-NHR2+"
Setting atom values ...
  0 settings made for charge
    set type 897 charge 0.0  # "Triene R2-C= (mid C=C)"
Setting atom values ...
  0 settings made for charge
    set type 898 charge -0.115  # "Triene RH-C= (mid C=C)"
Setting atom values ...
  0 settings made for charge
    set type 899 charge 0.15  # "Allene/Ketene H-C=C=X"
Setting atom values ...
  0 settings made for charge
    set type 900 charge -0.25  # "Allene/Ketene H2C=C=X"
Setting atom values ...
  0 settings made for charge
    set type 901 charge -0.1  # "Allene/Ketene HRC=C=X"
Setting atom values ...
  0 settings made for charge
    set type 902 charge 0.05  # "Allene/Ketene R2C=C=X"
Setting atom values ...
  0 settings made for charge
    set type 903 charge -0.1  # "Allene =C="
Setting atom values ...
  0 settings made for charge
    set type 904 charge 0.2  # "Ketene =C="
Setting atom values ...
  0 settings made for charge
    set type 905 charge -0.25  # "Ketene C=O"
Setting atom values ...
  0 settings made for charge
    set type 906 charge 0.088  # "N-Me-HIS CB"
Setting atom values ...
  0 settings made for charge

# ------------------------------- Settings Section --------------------------

include         "system.in.settings"
    pair_coeff 1 1  0.061 2.94
    pair_coeff 2 2  0.118 3.905
    pair_coeff 3 3  0.105 3.75
    pair_coeff 4 4  0.21 2.96
    pair_coeff 5 5  0.17 3.0
    pair_coeff 6 6  0.16 3.91
    pair_coeff 7 7  0.0 0.0
    pair_coeff 8 8  0.294 3.73
    pair_coeff 9 9  0.207 3.775
    pair_coeff 10 10  0.175 3.905
    pair_coeff 11 11  0.16 3.91
    pair_coeff 12 12  0.145 3.96
    pair_coeff 13 13  0.118 3.905
    pair_coeff 14 14  0.14 3.85
    pair_coeff 15 15  0.08 3.85
    pair_coeff 16 16  0.115 3.8
    pair_coeff 17 17  0.11 3.75
    pair_coeff 18 18  0.05 3.8
    pair_coeff 19 19  0.105 3.75
    pair_coeff 20 20  0.17 3.07
    pair_coeff 21 21  0.0 0.0
    pair_coeff 22 22  0.207 3.775
    pair_coeff 23 23  0.118 3.905
    pair_coeff 24 24  0.25 3.7
    pair_coeff 25 25  0.25 3.55
    pair_coeff 26 26  0.25 3.55
    pair_coeff 27 27  0.25 3.55
    pair_coeff 28 28  0.0 0.0
    pair_coeff 29 29  0.0 0.0
    pair_coeff 30 30  0.207 3.775
    pair_coeff 31 31  0.118 3.905
    pair_coeff 32 32  0.17 3.8
    pair_coeff 33 33  0.118 3.8
    pair_coeff 34 34  0.17 3.8
    pair_coeff 35 35  0.118 3.8
    pair_coeff 36 36  0.17 3.2
    pair_coeff 37 37  0.15 3.65
    pair_coeff 38 38  0.207 3.775
    pair_coeff 39 39  0.08 3.85
    pair_coeff 40 40  0.05 3.8
    pair_coeff 41 41  0.17 3.0
    pair_coeff 42 42  0.17 3.8
    pair_coeff 43 43  0.118 3.8
    pair_coeff 44 44  0.118 3.8
    pair_coeff 45 45  0.3 3.4
    pair_coeff 46 46  0.08 3.8
    pair_coeff 47 47  0.3 3.47
    pair_coeff 48 48  0.05 3.8
    pair_coeff 49 49  0.266 3.47
    pair_coeff 50 50  0.395 3.56
    pair_coeff 51 51  0.28 2.93
    pair_coeff 52 52  0.16 3.81
    pair_coeff 53 53  0.21 2.96
    pair_coeff 54 54  0.17 3.25
    pair_coeff 55 55  0.115 3.8
    pair_coeff 56 56  0.17 3.8
    pair_coeff 57 57  0.0 0.0
    pair_coeff 58 58  0.02 2.556
    pair_coeff 59 59  0.069 2.78
    pair_coeff 60 60  0.2339 3.401
    pair_coeff 61 61  0.317 3.624
    pair_coeff 62 62  0.433 3.935
    pair_coeff 63 63  0.1521 3.15061
    pair_coeff 64 64  0.0 0.0
    pair_coeff 65 65  0.155 3.15365
    pair_coeff 66 66  0.0 0.0
    pair_coeff 67 67  0.0 0.0
    pair_coeff 68 68  0.15 3.176
    pair_coeff 69 69  0.0 0.0
    pair_coeff 70 70  0.1 3.27
    pair_coeff 71 71  0.0 0.0
    pair_coeff 72 72  0.0 0.0
    pair_coeff 73 73  0.16 3.12
    pair_coeff 74 74  0.0 0.0
    pair_coeff 75 75  0.0 0.0
    pair_coeff 76 76  0.1554 3.16557
    pair_coeff 77 77  0.0 0.0
    pair_coeff 78 78  0.17 3.42
    pair_coeff 79 79  0.0 0.0
    pair_coeff 80 80  0.066 3.5
    pair_coeff 81 81  0.066 3.5
    pair_coeff 82 82  0.066 3.5
    pair_coeff 83 83  0.066 3.5
    pair_coeff 84 84  0.066 3.5
    pair_coeff 85 85  0.03 2.5
    pair_coeff 86 86  0.076 3.55
    pair_coeff 87 87  0.076 3.55
    pair_coeff 88 88  0.076 3.55
    pair_coeff 89 89  0.03 2.42
    pair_coeff 90 90  0.07 3.55
    pair_coeff 91 91  0.03 2.42
    pair_coeff 92 92  0.07 3.55
    pair_coeff 93 93  0.066 3.5
    pair_coeff 94 94  0.066 3.5
    pair_coeff 95 95  0.076 3.55
    pair_coeff 96 96  0.17 3.12
    pair_coeff 97 97  0.0 0.0
    pair_coeff 98 98  0.03 2.5
    pair_coeff 99 99  0.066 3.5
    pair_coeff 100 100  0.066 3.5
    pair_coeff 101 101  0.066 3.5
    pair_coeff 102 102  0.066 3.5
    pair_coeff 103 103  0.062 3.25
    pair_coeff 104 104  0.17 3.07
    pair_coeff 105 105  0.0 0.0
    pair_coeff 106 106  0.061 2.94
    pair_coeff 107 107  0.03 2.5
    pair_coeff 108 108  0.07 3.55
    pair_coeff 109 109  0.17 3.07
    pair_coeff 110 110  0.0 0.0
    pair_coeff 111 111  0.17 3.07
    pair_coeff 112 112  0.0 0.0
    pair_coeff 113 113  0.17 3.07
    pair_coeff 114 114  0.0 0.0
    pair_coeff 115 115  0.066 3.5
    pair_coeff 116 116  0.066 3.5
    pair_coeff 117 117  0.066 3.5
    pair_coeff 118 118  0.03 2.5
    pair_coeff 119 119  0.14 2.9
    pair_coeff 120 120  0.076 3.55
    pair_coeff 121 121  0.14 2.9
    pair_coeff 122 122  0.14 2.9
    pair_coeff 123 123  0.066 3.5
    pair_coeff 124 124  0.066 3.5
    pair_coeff 125 125  0.066 3.5
    pair_coeff 126 126  0.066 3.5
    pair_coeff 127 127  0.03 2.5
    pair_coeff 128 128  0.14 2.9
    pair_coeff 129 129  0.17 3.07
    pair_coeff 130 130  0.0 0.0
    pair_coeff 131 131  0.066 3.5
    pair_coeff 132 132  0.03 2.5
    pair_coeff 133 133  0.066 3.5
    pair_coeff 134 134  0.03 2.5
    pair_coeff 135 135  0.066 3.5
    pair_coeff 136 136  0.03 2.5
    pair_coeff 137 137  0.066 3.5
    pair_coeff 138 138  0.03 2.5
    pair_coeff 139 139  0.066 3.5
    pair_coeff 140 140  0.066 3.5
    pair_coeff 141 141  0.07 3.55
    pair_coeff 142 142  0.25 3.55
    pair_coeff 143 143  0.25 3.7
    pair_coeff 144 144  0.25 3.55
    pair_coeff 145 145  0.25 3.55
    pair_coeff 146 146  0.0 0.0
    pair_coeff 147 147  0.0 0.0
    pair_coeff 148 148  0.066 3.5
    pair_coeff 149 149  0.066 3.5
    pair_coeff 150 150  0.066 3.5
    pair_coeff 151 151  0.066 3.5
    pair_coeff 152 152  0.066 3.5
    pair_coeff 153 153  0.066 3.5
    pair_coeff 154 154  0.066 3.5
    pair_coeff 155 155  0.066 3.5
    pair_coeff 156 156  0.066 3.5
    pair_coeff 157 157  0.066 3.5
    pair_coeff 158 158  0.066 3.5
    pair_coeff 159 159  0.066 3.5
    pair_coeff 160 160  0.066 3.5
    pair_coeff 161 161  0.066 3.5
    pair_coeff 162 162  0.066 3.5
    pair_coeff 163 163  0.07 3.55
    pair_coeff 164 164  0.25 3.55
    pair_coeff 165 165  0.066 3.5
    pair_coeff 166 166  0.066 3.5
    pair_coeff 167 167  0.066 3.5
    pair_coeff 168 168  0.3 3.4
    pair_coeff 169 169  0.076 3.55
    pair_coeff 170 170  0.07 3.55
    pair_coeff 171 171  0.066 3.5
    pair_coeff 172 172  0.066 3.5
    pair_coeff 173 173  0.105 3.75
    pair_coeff 174 174  0.105 3.75
    pair_coeff 175 175  0.105 3.75
    pair_coeff 176 176  0.105 3.75
    pair_coeff 177 177  0.105 3.75
    pair_coeff 178 178  0.21 2.96
    pair_coeff 179 179  0.17 3.25
    pair_coeff 180 180  0.17 3.25
    pair_coeff 181 181  0.17 3.25
    pair_coeff 182 182  0.0 0.0
    pair_coeff 183 183  0.0 0.0
    pair_coeff 184 184  0.066 3.5
    pair_coeff 185 185  0.066 3.5
    pair_coeff 186 186  0.066 3.5
    pair_coeff 187 187  0.066 3.5
    pair_coeff 188 188  0.066 3.5
    pair_coeff 189 189  0.105 3.75
    pair_coeff 190 190  0.21 2.96
    pair_coeff 191 191  0.17 3.25
    pair_coeff 192 192  0.0 0.0
    pair_coeff 193 193  0.17 3.25
    pair_coeff 194 194  0.105 3.75
    pair_coeff 195 195  0.21 2.96
    pair_coeff 196 196  0.0 0.0
    pair_coeff 197 197  0.02 2.5
    pair_coeff 198 198  0.066 3.5
    pair_coeff 199 199  0.066 3.5
    pair_coeff 200 200  0.066 3.5
    pair_coeff 201 201  0.066 3.5
    pair_coeff 202 202  0.07 3.55
    pair_coeff 203 203  0.15 3.65
    pair_coeff 204 204  0.17 3.2
    pair_coeff 205 205  0.07 3.55
    pair_coeff 206 206  0.3 3.4
    pair_coeff 207 207  0.17 3.25
    pair_coeff 208 208  0.07 3.55
    pair_coeff 209 209  0.105 3.75
    pair_coeff 210 210  0.21 2.96
    pair_coeff 211 211  0.17 3.0
    pair_coeff 212 212  0.0 0.0
    pair_coeff 213 213  0.105 3.75
    pair_coeff 214 214  0.21 2.96
    pair_coeff 215 215  0.066 3.5
    pair_coeff 216 216  0.066 3.5
    pair_coeff 217 217  0.066 3.5
    pair_coeff 218 218  0.066 3.5
    pair_coeff 219 219  0.105 3.75
    pair_coeff 220 220  0.21 2.96
    pair_coeff 221 221  0.015 2.42
    pair_coeff 222 222  0.105 3.75
    pair_coeff 223 223  0.21 2.96
    pair_coeff 224 224  0.015 2.42
    pair_coeff 225 225  0.066 3.5
    pair_coeff 226 226  0.066 3.5
    pair_coeff 227 227  0.066 3.5
    pair_coeff 228 228  0.066 3.5
    pair_coeff 229 229  0.17 3.25
    pair_coeff 230 230  0.17 3.25
    pair_coeff 231 231  0.17 3.25
    pair_coeff 232 232  0.0 0.0
    pair_coeff 233 233  0.0 0.0
    pair_coeff 234 234  0.066 3.5
    pair_coeff 235 235  0.066 3.5
    pair_coeff 236 236  0.066 3.5
    pair_coeff 237 237  0.066 3.5
    pair_coeff 238 238  0.066 3.5
    pair_coeff 239 239  0.066 3.5
    pair_coeff 240 240  0.066 3.5
    pair_coeff 241 241  0.066 3.5
    pair_coeff 242 242  0.066 3.5
    pair_coeff 243 243  0.17 3.25
    pair_coeff 244 244  0.0 0.0
    pair_coeff 245 245  0.05 3.55
    pair_coeff 246 246  0.17 3.25
    pair_coeff 247 247  0.0 0.0
    pair_coeff 248 248  0.066 3.5
    pair_coeff 249 249  0.066 3.5
    pair_coeff 250 250  0.066 3.5
    pair_coeff 251 251  0.066 3.5
    pair_coeff 252 252  0.17 3.25
    pair_coeff 253 253  0.0 0.0
    pair_coeff 254 254  0.17 3.25
    pair_coeff 255 255  0.08 3.5
    pair_coeff 256 256  0.17 3.25
    pair_coeff 257 257  0.0 0.0
    pair_coeff 258 258  0.08 3.5
    pair_coeff 259 259  0.05 2.5
    pair_coeff 260 260  0.08 3.5
    pair_coeff 261 261  0.05 2.5
    pair_coeff 262 262  0.17 3.25
    pair_coeff 263 263  0.105 3.75
    pair_coeff 264 264  0.17 3.25
    pair_coeff 265 265  0.105 3.75
    pair_coeff 266 266  0.08 3.5
    pair_coeff 267 267  0.08 3.5
    pair_coeff 268 268  0.0 0.0
    pair_coeff 269 269  0.21 2.96
    pair_coeff 270 270  0.0 0.0
    pair_coeff 271 271  0.21 2.96
    pair_coeff 272 272  0.05 2.5
    pair_coeff 273 273  0.05 2.5
    pair_coeff 274 274  0.08 3.5
    pair_coeff 275 275  0.05 2.5
    pair_coeff 276 276  0.17 3.25
    pair_coeff 277 277  0.105 3.75
    pair_coeff 278 278  0.17 3.25
    pair_coeff 279 279  0.08 3.5
    pair_coeff 280 280  0.08 3.5
    pair_coeff 281 281  0.08 3.5
    pair_coeff 282 282  0.0 0.0
    pair_coeff 283 283  0.21 2.96
    pair_coeff 284 284  0.17 3.25
    pair_coeff 285 285  0.0 0.0
    pair_coeff 286 286  0.0 0.0
    pair_coeff 287 287  0.05 2.5
    pair_coeff 288 288  0.05 2.5
    pair_coeff 289 289  0.17 3.25
    pair_coeff 290 290  0.08 3.5
    pair_coeff 291 291  0.17 3.25
    pair_coeff 292 292  0.08 3.5
    pair_coeff 293 293  0.08 3.5
    pair_coeff 294 294  0.08 3.5
    pair_coeff 295 295  0.17 3.25
    pair_coeff 296 296  0.08 3.5
    pair_coeff 297 297  0.17 3.25
    pair_coeff 298 298  0.05 2.5
    pair_coeff 299 299  0.17 3.25
    pair_coeff 300 300  0.0 0.0
    pair_coeff 301 301  0.0 0.0
    pair_coeff 302 302  0.05 2.5
    pair_coeff 303 303  0.0 0.0
    pair_coeff 304 304  0.17 3.25
    pair_coeff 305 305  0.08 3.5
    pair_coeff 306 306  0.17 3.25
    pair_coeff 307 307  0.08 3.5
    pair_coeff 308 308  0.08 3.5
    pair_coeff 309 309  0.105 3.75
    pair_coeff 310 310  0.0 0.0
    pair_coeff 311 311  0.17 3.25
    pair_coeff 312 312  0.0 0.0
    pair_coeff 313 313  0.21 2.96
    pair_coeff 314 314  0.08 3.5
    pair_coeff 315 315  0.05 2.5
    pair_coeff 316 316  0.08 3.5
    pair_coeff 317 317  0.05 2.5
    pair_coeff 318 318  0.08 3.5
    pair_coeff 319 319  0.05 2.5
    pair_coeff 320 320  0.17 3.25
    pair_coeff 321 321  0.105 3.75
    pair_coeff 322 322  0.17 3.25
    pair_coeff 323 323  0.08 3.5
    pair_coeff 324 324  0.08 3.5
    pair_coeff 325 325  0.08 3.5
    pair_coeff 326 326  0.0 0.0
    pair_coeff 327 327  0.21 2.96
    pair_coeff 328 328  0.0 0.0
    pair_coeff 329 329  0.17 3.25
    pair_coeff 330 330  0.0 0.0
    pair_coeff 331 331  0.0 0.0
    pair_coeff 332 332  0.05 2.5
    pair_coeff 333 333  0.05 2.5
    pair_coeff 334 334  0.08 3.5
    pair_coeff 335 335  0.05 2.5
    pair_coeff 336 336  0.2 3.74
    pair_coeff 337 337  0.21 2.96
    pair_coeff 338 338  0.17 3.0
    pair_coeff 339 339  0.066 3.55
    pair_coeff 340 340  0.08 3.5
    pair_coeff 341 341  0.3 3.4
    pair_coeff 342 342  0.076 3.55
    pair_coeff 343 343  0.71 3.05
    pair_coeff 344 344  0.71 4.02
    pair_coeff 345 345  0.71 4.28
    pair_coeff 346 346  0.71 4.81
    pair_coeff 347 347  0.0005 5.34
    pair_coeff 348 348  0.0005 2.87
    pair_coeff 349 349  0.0005 4.07
    pair_coeff 350 350  0.0005 5.17
    pair_coeff 351 351  0.0005 5.6
    pair_coeff 352 352  0.0005 6.2
    pair_coeff 353 353  0.875044 1.644471
    pair_coeff 354 354  0.449657 2.412031
    pair_coeff 355 355  0.118226 3.102688
    pair_coeff 356 356  0.047096 3.81661
    pair_coeff 357 357  0.3 4.2
    pair_coeff 358 358  0.05 2.5
    pair_coeff 359 359  0.5 4.25
    pair_coeff 360 360  0.3 4.2
    pair_coeff 361 361  0.05 2.5
    pair_coeff 362 362  0.25 3.15
    pair_coeff 363 363  0.3 4.2
    pair_coeff 364 364  0.05 2.5
    pair_coeff 365 365  0.15 3.65
    pair_coeff 366 366  0.25 3.4
    pair_coeff 367 367  0.3 4.2
    pair_coeff 368 368  0.05 2.5
    pair_coeff 369 369  0.25 3.4
    pair_coeff 370 370  0.05 2.5
    pair_coeff 371 371  0.3 4.2
    pair_coeff 372 372  0.05 2.5
    pair_coeff 373 373  0.3 4.2
    pair_coeff 374 374  0.05 2.5
    pair_coeff 375 375  0.0 0.0
    pair_coeff 376 376  0.25 3.2
    pair_coeff 377 377  0.0 0.0
    pair_coeff 378 378  0.4 2.81524
    pair_coeff 379 379  0.2 3.11815
    pair_coeff 380 380  0.14 2.9
    pair_coeff 381 381  0.2 3.74
    pair_coeff 382 382  0.2 3.15
    pair_coeff 383 383  0.14 2.9
    pair_coeff 384 384  0.066 3.5
    pair_coeff 385 385  0.03 2.5
    pair_coeff 386 386  0.2 3.74
    pair_coeff 387 387  0.2 3.15
    pair_coeff 388 388  0.14 2.9
    pair_coeff 389 389  0.066 3.5
    pair_coeff 390 390  0.03 2.5
    pair_coeff 391 391  0.2 3.74
    pair_coeff 392 392  0.2 3.15
    pair_coeff 393 393  0.14 2.9
    pair_coeff 394 394  0.066 3.5
    pair_coeff 395 395  0.03 2.5
    pair_coeff 396 396  0.066 3.5
    pair_coeff 397 397  0.03 2.5
    pair_coeff 398 398  0.07 3.55
    pair_coeff 399 399  0.066 3.5
    pair_coeff 400 400  0.03 2.5
    pair_coeff 401 401  0.07 3.55
    pair_coeff 402 402  0.066 3.5
    pair_coeff 403 403  0.03 2.5
    pair_coeff 404 404  0.07 3.55
    pair_coeff 405 405  0.066 3.5
    pair_coeff 406 406  0.105 3.75
    pair_coeff 407 407  0.21 2.96
    pair_coeff 408 408  0.17 3.0
    pair_coeff 409 409  0.066 3.5
    pair_coeff 410 410  0.015 2.42
    pair_coeff 411 411  0.105 3.75
    pair_coeff 412 412  0.105 3.75
    pair_coeff 413 413  0.07 3.55
    pair_coeff 414 414  0.17 3.0
    pair_coeff 415 415  0.25 3.55
    pair_coeff 416 416  0.17 2.96
    pair_coeff 417 417  0.066 3.5
    pair_coeff 418 418  0.03 2.5
    pair_coeff 419 419  0.17 3.25
    pair_coeff 420 420  0.0 0.0
    pair_coeff 421 421  0.17 3.25
    pair_coeff 422 422  0.0 0.0
    pair_coeff 423 423  0.066 3.5
    pair_coeff 424 424  0.03 2.5
    pair_coeff 425 425  0.066 3.5
    pair_coeff 426 426  0.03 2.5
    pair_coeff 427 427  0.066 3.5
    pair_coeff 428 428  0.03 2.5
    pair_coeff 429 429  0.07 3.55
    pair_coeff 430 430  0.07 3.55
    pair_coeff 431 431  0.066 3.5
    pair_coeff 432 432  0.066 3.5
    pair_coeff 433 433  0.066 3.5
    pair_coeff 434 434  0.25 3.55
    pair_coeff 435 435  0.17 2.96
    pair_coeff 436 436  0.395 3.56
    pair_coeff 437 437  0.395 3.56
    pair_coeff 438 438  0.28 2.93
    pair_coeff 439 439  0.066 3.5
    pair_coeff 440 440  0.066 3.5
    pair_coeff 441 441  0.07 3.55
    pair_coeff 442 442  0.07 3.55
    pair_coeff 443 443  0.07 3.55
    pair_coeff 444 444  0.17 3.25
    pair_coeff 445 445  0.0 0.0
    pair_coeff 446 446  0.066 3.5
    pair_coeff 447 447  0.07 3.55
    pair_coeff 448 448  0.07 3.55
    pair_coeff 449 449  0.07 3.55
    pair_coeff 450 450  0.07 3.55
    pair_coeff 451 451  0.07 3.55
    pair_coeff 452 452  0.17 3.25
    pair_coeff 453 453  0.17 3.25
    pair_coeff 454 454  0.0 0.0
    pair_coeff 455 455  0.07 3.55
    pair_coeff 456 456  0.066 3.5
    pair_coeff 457 457  0.066 3.5
    pair_coeff 458 458  0.076 3.55
    pair_coeff 459 459  0.076 3.55
    pair_coeff 460 460  0.07 3.55
    pair_coeff 461 461  0.17 3.25
    pair_coeff 462 462  0.07 3.55
    pair_coeff 463 463  0.07 3.55
    pair_coeff 464 464  0.07 3.55
    pair_coeff 465 465  0.03 2.42
    pair_coeff 466 466  0.03 2.42
    pair_coeff 467 467  0.03 2.42
    pair_coeff 468 468  0.17 3.25
    pair_coeff 469 469  0.07 3.55
    pair_coeff 470 470  0.03 2.42
    pair_coeff 471 471  0.17 3.25
    pair_coeff 472 472  0.07 3.55
    pair_coeff 473 473  0.07 3.55
    pair_coeff 474 474  0.07 3.55
    pair_coeff 475 475  0.03 2.42
    pair_coeff 476 476  0.03 2.42
    pair_coeff 477 477  0.03 2.42
    pair_coeff 478 478  0.17 3.25
    pair_coeff 479 479  0.07 3.55
    pair_coeff 480 480  0.07 3.55
    pair_coeff 481 481  0.03 2.42
    pair_coeff 482 482  0.03 2.42
    pair_coeff 483 483  0.17 3.25
    pair_coeff 484 484  0.07 3.55
    pair_coeff 485 485  0.07 3.55
    pair_coeff 486 486  0.0 0.0
    pair_coeff 487 487  0.03 2.42
    pair_coeff 488 488  0.03 2.42
    pair_coeff 489 489  0.17 3.25
    pair_coeff 490 490  0.17 3.25
    pair_coeff 491 491  0.07 3.55
    pair_coeff 492 492  0.07 3.55
    pair_coeff 493 493  0.07 3.55
    pair_coeff 494 494  0.0 0.0
    pair_coeff 495 495  0.03 2.42
    pair_coeff 496 496  0.03 2.42
    pair_coeff 497 497  0.03 2.42
    pair_coeff 498 498  0.17 3.25
    pair_coeff 499 499  0.07 3.55
    pair_coeff 500 500  0.17 3.25
    pair_coeff 501 501  0.07 3.55
    pair_coeff 502 502  0.07 3.55
    pair_coeff 503 503  0.0 0.0
    pair_coeff 504 504  0.03 2.42
    pair_coeff 505 505  0.03 2.42
    pair_coeff 506 506  0.03 2.42
    pair_coeff 507 507  0.14 2.9
    pair_coeff 508 508  0.07 3.55
    pair_coeff 509 509  0.076 3.55
    pair_coeff 510 510  0.03 2.42
    pair_coeff 511 511  0.03 2.42
    pair_coeff 512 512  0.14 2.9
    pair_coeff 513 513  0.07 3.55
    pair_coeff 514 514  0.17 3.25
    pair_coeff 515 515  0.07 3.55
    pair_coeff 516 516  0.07 3.55
    pair_coeff 517 517  0.03 2.42
    pair_coeff 518 518  0.03 2.42
    pair_coeff 519 519  0.03 2.42
    pair_coeff 520 520  0.14 2.9
    pair_coeff 521 521  0.17 3.25
    pair_coeff 522 522  0.07 3.55
    pair_coeff 523 523  0.07 3.55
    pair_coeff 524 524  0.07 3.55
    pair_coeff 525 525  0.03 2.42
    pair_coeff 526 526  0.03 2.42
    pair_coeff 527 527  0.03 2.42
    pair_coeff 528 528  0.17 3.25
    pair_coeff 529 529  0.07 3.55
    pair_coeff 530 530  0.07 3.55
    pair_coeff 531 531  0.07 3.55
    pair_coeff 532 532  0.07 3.55
    pair_coeff 533 533  0.07 3.55
    pair_coeff 534 534  0.07 3.55
    pair_coeff 535 535  0.07 3.55
    pair_coeff 536 536  0.07 3.55
    pair_coeff 537 537  0.0 0.0
    pair_coeff 538 538  0.03 2.42
    pair_coeff 539 539  0.03 2.42
    pair_coeff 540 540  0.03 2.42
    pair_coeff 541 541  0.03 2.42
    pair_coeff 542 542  0.03 2.42
    pair_coeff 543 543  0.03 2.42
    pair_coeff 544 544  0.17 3.25
    pair_coeff 545 545  0.07 3.55
    pair_coeff 546 546  0.07 3.55
    pair_coeff 547 547  0.07 3.55
    pair_coeff 548 548  0.07 3.55
    pair_coeff 549 549  0.07 3.55
    pair_coeff 550 550  0.07 3.55
    pair_coeff 551 551  0.07 3.55
    pair_coeff 552 552  0.07 3.55
    pair_coeff 553 553  0.07 3.55
    pair_coeff 554 554  0.03 2.42
    pair_coeff 555 555  0.03 2.42
    pair_coeff 556 556  0.03 2.42
    pair_coeff 557 557  0.03 2.42
    pair_coeff 558 558  0.03 2.42
    pair_coeff 559 559  0.03 2.42
    pair_coeff 560 560  0.03 2.42
    pair_coeff 561 561  0.17 3.25
    pair_coeff 562 562  0.07 3.55
    pair_coeff 563 563  0.17 3.25
    pair_coeff 564 564  0.07 3.55
    pair_coeff 565 565  0.07 3.55
    pair_coeff 566 566  0.07 3.55
    pair_coeff 567 567  0.17 3.25
    pair_coeff 568 568  0.07 3.55
    pair_coeff 569 569  0.17 3.25
    pair_coeff 570 570  0.03 2.42
    pair_coeff 571 571  0.03 2.42
    pair_coeff 572 572  0.03 2.42
    pair_coeff 573 573  0.0 0.0
    pair_coeff 574 574  0.25 3.55
    pair_coeff 575 575  0.07 3.55
    pair_coeff 576 576  0.17 3.25
    pair_coeff 577 577  0.07 3.55
    pair_coeff 578 578  0.07 3.55
    pair_coeff 579 579  0.03 2.42
    pair_coeff 580 580  0.03 2.42
    pair_coeff 581 581  0.03 2.42
    pair_coeff 582 582  0.17 3.25
    pair_coeff 583 583  0.07 3.55
    pair_coeff 584 584  0.03 2.42
    pair_coeff 585 585  0.07 3.55
    pair_coeff 586 586  0.066 3.5
    pair_coeff 587 587  0.17 3.25
    pair_coeff 588 588  0.07 3.55
    pair_coeff 589 589  0.07 3.55
    pair_coeff 590 590  0.07 3.55
    pair_coeff 591 591  0.07 3.55
    pair_coeff 592 592  0.07 3.55
    pair_coeff 593 593  0.07 3.55
    pair_coeff 594 594  0.03 2.42
    pair_coeff 595 595  0.03 2.42
    pair_coeff 596 596  0.03 2.42
    pair_coeff 597 597  0.03 2.42
    pair_coeff 598 598  0.17 3.25
    pair_coeff 599 599  0.07 3.55
    pair_coeff 600 600  0.17 3.25
    pair_coeff 601 601  0.07 3.55
    pair_coeff 602 602  0.07 3.55
    pair_coeff 603 603  0.066 3.5
    pair_coeff 604 604  0.03 2.42
    pair_coeff 605 605  0.03 2.42
    pair_coeff 606 606  0.03 2.42
    pair_coeff 607 607  0.03 2.5
    pair_coeff 608 608  0.066 3.5
    pair_coeff 609 609  0.066 3.5
    pair_coeff 610 610  0.066 3.5
    pair_coeff 611 611  0.066 3.5
    pair_coeff 612 612  0.066 3.5
    pair_coeff 613 613  0.066 3.5
    pair_coeff 614 614  0.066 3.5
    pair_coeff 615 615  0.066 3.5
    pair_coeff 616 616  0.066 3.5
    pair_coeff 617 617  0.066 3.5
    pair_coeff 618 618  0.066 3.5
    pair_coeff 619 619  0.066 3.5
    pair_coeff 620 620  0.066 3.5
    pair_coeff 621 621  0.066 3.5
    pair_coeff 622 622  0.066 3.5
    pair_coeff 623 623  0.25 3.55
    pair_coeff 624 624  0.0 0.0
    pair_coeff 625 625  0.07 3.55
    pair_coeff 626 626  0.105 3.75
    pair_coeff 627 627  0.17 3.25
    pair_coeff 628 628  0.066 3.5
    pair_coeff 629 629  0.066 3.5
    pair_coeff 630 630  0.066 3.5
    pair_coeff 631 631  0.07 3.55
    pair_coeff 632 632  0.07 3.55
    pair_coeff 633 633  0.07 3.55
    pair_coeff 634 634  0.07 3.55
    pair_coeff 635 635  0.07 3.55
    pair_coeff 636 636  0.07 3.55
    pair_coeff 637 637  0.25 3.55
    pair_coeff 638 638  0.054 3.473
    pair_coeff 639 639  0.05 3.3
    pair_coeff 640 640  0.05 3.3
    pair_coeff 641 641  0.076 3.55
    pair_coeff 642 642  0.066 3.5
    pair_coeff 643 643  0.03 2.5
    pair_coeff 644 644  0.06 3.75
    pair_coeff 645 645  0.054 3.473
    pair_coeff 646 646  0.05 3.3
    pair_coeff 647 647  0.05 3.3
    pair_coeff 648 648  0.04 2.95
    pair_coeff 649 649  0.076 3.55
    pair_coeff 650 650  0.3 3.4
    pair_coeff 651 651  0.03 2.42
    pair_coeff 652 652  0.066 3.5
    pair_coeff 653 653  0.066 3.5
    pair_coeff 654 654  0.066 3.5
    pair_coeff 655 655  0.07 3.55
    pair_coeff 656 656  0.03 2.42
    pair_coeff 657 657  0.07 3.55
    pair_coeff 658 658  0.03 2.42
    pair_coeff 659 659  0.07 3.55
    pair_coeff 660 660  0.061 2.85
    pair_coeff 661 661  0.07 3.55
    pair_coeff 662 662  0.061 2.85
    pair_coeff 663 663  0.47 3.47
    pair_coeff 664 664  0.118 3.905
    pair_coeff 665 665  0.07 3.55
    pair_coeff 666 666  0.062 3.25
    pair_coeff 667 667  0.061 2.94
    pair_coeff 668 668  0.07 3.55
    pair_coeff 669 669  0.061 2.85
    pair_coeff 670 670  0.07 3.55
    pair_coeff 671 671  0.47 3.47
    pair_coeff 672 672  0.07 3.55
    pair_coeff 673 673  0.6 3.75
    pair_coeff 674 674  0.066 3.5
    pair_coeff 675 675  0.25 3.55
    pair_coeff 676 676  0.07 3.55
    pair_coeff 677 677  0.07 3.55
    pair_coeff 678 678  0.07 3.55
    pair_coeff 679 679  0.07 3.55
    pair_coeff 680 680  0.07 3.55
    pair_coeff 681 681  0.03 2.42
    pair_coeff 682 682  0.03 2.42
    pair_coeff 683 683  0.05 3.55
    pair_coeff 684 684  0.17 3.25
    pair_coeff 685 685  0.0 0.0
    pair_coeff 686 686  0.0 0.0
    pair_coeff 687 687  0.03 2.42
    pair_coeff 688 688  0.066 3.5
    pair_coeff 689 689  0.066 3.5
    pair_coeff 690 690  0.17 3.25
    pair_coeff 691 691  0.17 3.25
    pair_coeff 692 692  0.17 3.25
    pair_coeff 693 693  0.05 3.55
    pair_coeff 694 694  0.17 3.2
    pair_coeff 695 695  0.066 3.3
    pair_coeff 696 696  0.066 3.3
    pair_coeff 697 697  0.066 3.3
    pair_coeff 698 698  0.066 3.3
    pair_coeff 699 699  0.066 3.3
    pair_coeff 700 700  0.015 2.5
    pair_coeff 701 701  0.12 3.25
    pair_coeff 702 702  0.17 2.96
    pair_coeff 703 703  0.066 3.5
    pair_coeff 704 704  0.015 2.5
    pair_coeff 705 705  0.066 3.5
    pair_coeff 706 706  0.066 3.5
    pair_coeff 707 707  0.066 3.5
    pair_coeff 708 708  0.12 3.25
    pair_coeff 709 709  0.07 3.55
    pair_coeff 710 710  0.066 3.3
    pair_coeff 711 711  0.17 3.25
    pair_coeff 712 712  0.21 2.96
    pair_coeff 713 713  0.105 3.75
    pair_coeff 714 714  0.17 3.0
    pair_coeff 715 715  0.066 3.5
    pair_coeff 716 716  0.066 3.5
    pair_coeff 717 717  0.066 3.5
    pair_coeff 718 718  0.015 2.42
    pair_coeff 719 719  0.015 2.42
    pair_coeff 720 720  0.015 2.42
    pair_coeff 721 721  0.14 2.9
    pair_coeff 722 722  0.2 3.74
    pair_coeff 723 723  0.066 3.5
    pair_coeff 724 724  0.066 3.5
    pair_coeff 725 725  0.03 2.5
    pair_coeff 726 726  0.2 3.74
    pair_coeff 727 727  0.061 3.1181
    pair_coeff 728 728  0.17 3.15
    pair_coeff 729 729  0.21 2.86
    pair_coeff 730 730  0.17 3.3
    pair_coeff 731 731  0.17 3.3
    pair_coeff 732 732  0.17 3.3
    pair_coeff 733 733  0.066 3.5
    pair_coeff 734 734  0.066 3.5
    pair_coeff 735 735  0.066 3.5
    pair_coeff 736 736  0.066 3.5
    pair_coeff 737 737  0.066 3.5
    pair_coeff 738 738  0.066 3.5
    pair_coeff 739 739  0.0 0.0
    pair_coeff 740 740  0.0 0.0
    pair_coeff 741 741  0.015 2.5
    pair_coeff 742 742  0.066 3.5
    pair_coeff 743 743  0.066 3.5
    pair_coeff 744 744  0.066 3.5
    pair_coeff 745 745  0.066 3.5
    pair_coeff 746 746  0.07 3.55
    pair_coeff 747 747  0.07 3.55
    pair_coeff 748 748  0.07 3.55
    pair_coeff 749 749  0.066 3.5
    pair_coeff 750 750  0.066 3.5
    pair_coeff 751 751  0.066 3.5
    pair_coeff 752 752  0.066 3.5
    pair_coeff 753 753  0.066 3.5
    pair_coeff 754 754  0.066 3.5
    pair_coeff 755 755  0.086 3.3
    pair_coeff 756 756  0.015 2.42
    pair_coeff 757 757  0.21 3.3
    pair_coeff 758 758  0.135 3.3
    pair_coeff 759 759  0.1 3.3
    pair_coeff 760 760  0.015 2.5
    pair_coeff 761 761  0.066 3.5
    pair_coeff 762 762  0.066 3.5
    pair_coeff 763 763  0.066 3.5
    pair_coeff 764 764  0.17 3.12
    pair_coeff 765 765  0.0 0.0
    pair_coeff 766 766  0.17 3.25
    pair_coeff 767 767  0.17 3.25
    pair_coeff 768 768  0.17 3.25
    pair_coeff 769 769  0.21 3.3
    pair_coeff 770 770  0.17 3.25
    pair_coeff 771 771  0.0 0.0
    pair_coeff 772 772  0.066 3.5
    pair_coeff 773 773  0.066 3.5
    pair_coeff 774 774  0.066 3.5
    pair_coeff 775 775  0.066 3.5
    pair_coeff 776 776  0.07 3.55
    pair_coeff 777 777  0.076 3.55
    pair_coeff 778 778  0.07 3.55
    pair_coeff 779 779  0.07 3.55
    pair_coeff 780 780  0.03 2.5
    pair_coeff 781 781  0.066 3.5
    pair_coeff 782 782  0.105 3.75
    pair_coeff 783 783  0.17 3.25
    pair_coeff 784 784  0.21 2.96
    pair_coeff 785 785  0.0 0.0
    pair_coeff 786 786  0.061 2.94
    pair_coeff 787 787  0.066 3.5
    pair_coeff 788 788  0.03 2.5
    pair_coeff 789 789  0.066 3.5
    pair_coeff 790 790  0.066 3.5
    pair_coeff 791 791  0.066 3.5
    pair_coeff 792 792  0.066 3.5
    pair_coeff 793 793  0.066 3.5
    pair_coeff 794 794  0.097 3.5
    pair_coeff 795 795  0.053 2.95
    pair_coeff 796 796  0.062 3.25
    pair_coeff 797 797  0.03 2.5
    pair_coeff 798 798  0.066 3.5
    pair_coeff 799 799  0.066 3.5
    pair_coeff 800 800  0.3 3.4
    pair_coeff 801 801  0.066 3.5
    pair_coeff 802 802  0.03 2.5
    pair_coeff 803 803  0.066 3.5
    pair_coeff 804 804  0.066 3.5
    pair_coeff 805 805  0.47 3.47
    pair_coeff 806 806  0.066 3.5
    pair_coeff 807 807  0.03 2.5
    pair_coeff 808 808  0.066 3.5
    pair_coeff 809 809  0.066 3.5
    pair_coeff 810 810  0.061 2.94
    pair_coeff 811 811  0.3 3.4
    pair_coeff 812 812  0.47 3.47
    pair_coeff 813 813  0.07 3.55
    pair_coeff 814 814  0.14 2.9
    pair_coeff 815 815  0.066 3.5
    pair_coeff 816 816  0.06 2.9
    pair_coeff 817 817  0.17 3.25
    pair_coeff 818 818  0.07 3.55
    pair_coeff 819 819  0.066 3.5
    pair_coeff 820 820  0.105 3.75
    pair_coeff 821 821  0.105 3.75
    pair_coeff 822 822  0.21 2.96
    pair_coeff 823 823  0.17 3.25
    pair_coeff 824 824  0.0 0.0
    pair_coeff 825 825  0.17 3.12
    pair_coeff 826 826  0.0 0.0
    pair_coeff 827 827  0.066 3.5
    pair_coeff 828 828  0.066 3.5
    pair_coeff 829 829  0.07 3.55
    pair_coeff 830 830  0.07 3.55
    pair_coeff 831 831  0.07 3.55
    pair_coeff 832 832  0.07 3.55
    pair_coeff 833 833  0.07 3.55
    pair_coeff 834 834  0.0125 1.96
    pair_coeff 835 835  0.066 3.5
    pair_coeff 836 836  0.066 3.5
    pair_coeff 837 837  0.066 3.5
    pair_coeff 838 838  0.6 3.75
    pair_coeff 839 839  0.03 2.5
    pair_coeff 840 840  0.17 3.25
    pair_coeff 841 841  0.07 3.55
    pair_coeff 842 842  0.07 3.55
    pair_coeff 843 843  0.17 3.25
    pair_coeff 844 844  0.07 3.55
    pair_coeff 845 845  0.105 3.75
    pair_coeff 846 846  0.21 2.96
    pair_coeff 847 847  0.17 3.25
    pair_coeff 848 848  0.066 3.5
    pair_coeff 849 849  0.066 3.5
    pair_coeff 850 850  0.066 3.5
    pair_coeff 851 851  0.066 3.5
    pair_coeff 852 852  0.015 2.42
    pair_coeff 853 853  0.105 3.75
    pair_coeff 854 854  0.21 2.96
    pair_coeff 855 855  0.015 2.42
    pair_coeff 856 856  0.066 3.5
    pair_coeff 857 857  0.066 3.5
    pair_coeff 858 858  0.066 3.5
    pair_coeff 859 859  0.066 3.5
    pair_coeff 860 860  0.066 3.5
    pair_coeff 861 861  0.066 3.5
    pair_coeff 862 862  0.066 3.5
    pair_coeff 863 863  0.066 3.5
    pair_coeff 864 864  0.066 3.5
    pair_coeff 865 865  0.066 3.5
    pair_coeff 866 866  0.1 4.0
    pair_coeff 867 867  0.1 4.0
    pair_coeff 868 868  0.1 4.0
    pair_coeff 869 869  0.1 4.0
    pair_coeff 870 870  0.03 2.5
    pair_coeff 871 871  0.066 3.5
    pair_coeff 872 872  0.066 3.5
    pair_coeff 873 873  0.066 3.5
    pair_coeff 874 874  0.066 3.5
    pair_coeff 875 875  0.72 3.08
    pair_coeff 876 876  0.11779 4.18
    pair_coeff 877 877  0.09 4.51
    pair_coeff 878 878  0.07 5.15
    pair_coeff 879 879  0.018279 2.7
    pair_coeff 880 880  0.002772 3.35
    pair_coeff 881 881  0.000328 4.06
    pair_coeff 882 882  0.000171 4.32
    pair_coeff 883 883  8.1e-05 4.82
    pair_coeff 884 884  0.875044 2.91
    pair_coeff 885 885  0.449657 3.47
    pair_coeff 886 886  0.118226 3.82
    pair_coeff 887 887  0.047096 4.18
    pair_coeff 888 888  0.066 3.5
    pair_coeff 889 889  0.066 3.5
    pair_coeff 890 890  0.066 3.5
    pair_coeff 891 891  0.066 3.5
    pair_coeff 892 892  0.03 2.5
    pair_coeff 893 893  0.17 3.25
    pair_coeff 894 894  0.07 3.55
    pair_coeff 895 895  0.17 3.25
    pair_coeff 896 896  0.07 3.55
    pair_coeff 897 897  0.076 3.55
    pair_coeff 898 898  0.076 3.55
    pair_coeff 899 899  0.03 2.42
    pair_coeff 900 900  0.086 3.3
    pair_coeff 901 901  0.086 3.3
    pair_coeff 902 902  0.086 3.3
    pair_coeff 903 903  0.086 3.3
    pair_coeff 904 904  0.086 3.3
    pair_coeff 905 905  0.21 2.96
    pair_coeff 906 906  0.066 3.5
    bond_coeff 1  367.0 1.38
    bond_coeff 2  420.0 1.357
    bond_coeff 3  367.0 1.36
    bond_coeff 4  450.0 1.279
    bond_coeff 5  300.0 0.3
    bond_coeff 6  420.0 1.34
    bond_coeff 7  420.0 1.354
    bond_coeff 8  420.0 1.354
    bond_coeff 9  420.0 1.354
    bond_coeff 10  420.0 1.354
    bond_coeff 11  420.0 1.354
    bond_coeff 12  420.0 1.354
    bond_coeff 13  461.0 1.57
    bond_coeff 14  260.0 1.526
    bond_coeff 15  317.0 1.522
    bond_coeff 16  386.0 1.425
    bond_coeff 17  260.0 1.526
    bond_coeff 18  260.0 1.526
    bond_coeff 19  317.0 1.5
    bond_coeff 20  317.0 1.51
    bond_coeff 21  260.0 1.526
    bond_coeff 22  317.0 1.5
    bond_coeff 23  222.0 1.81
    bond_coeff 24  222.0 1.81
    bond_coeff 25  320.0 1.425
    bond_coeff 26  337.0 1.449
    bond_coeff 27  382.0 1.448
    bond_coeff 28  317.0 1.51
    bond_coeff 29  260.0 1.526
    bond_coeff 30  367.0 1.471
    bond_coeff 31  337.0 1.463
    bond_coeff 32  317.0 1.495
    bond_coeff 33  350.0 1.51
    bond_coeff 34  570.0 1.229
    bond_coeff 35  450.0 1.364
    bond_coeff 36  317.0 1.522
    bond_coeff 37  317.0 1.522
    bond_coeff 38  469.0 1.4
    bond_coeff 39  317.0 1.522
    bond_coeff 40  400.0 1.444
    bond_coeff 41  214.0 1.327
    bond_coeff 42  300.0 1.79
    bond_coeff 43  490.0 1.335
    bond_coeff 44  317.0 1.522
    bond_coeff 45  340.0 1.09
    bond_coeff 46  410.0 1.444
    bond_coeff 47  400.0 1.49
    bond_coeff 48  385.0 1.46
    bond_coeff 49  656.0 1.25
    bond_coeff 50  457.0 1.358
    bond_coeff 51  418.0 1.388
    bond_coeff 52  447.0 1.419
    bond_coeff 53  300.0 1.98
    bond_coeff 54  400.0 1.49
    bond_coeff 55  385.0 1.46
    bond_coeff 56  424.0 1.383
    bond_coeff 57  490.0 1.335
    bond_coeff 58  553.0 0.3
    bond_coeff 59  525.0 1.48
    bond_coeff 60  570.0 1.229
    bond_coeff 61  700.0 1.171
    bond_coeff 62  386.0 1.425
    bond_coeff 63  553.0 0.945
    bond_coeff 64  386.0 1.425
    bond_coeff 65  320.0 1.41
    bond_coeff 66  250.0 1.47
    bond_coeff 67  400.0 1.38
    bond_coeff 68  340.0 0.3
    bond_coeff 69  320.0 1.45
    bond_coeff 70  450.0 1.37
    bond_coeff 71  450.0 1.364
    bond_coeff 72  320.0 1.38
    bond_coeff 73  230.0 1.61
    bond_coeff 74  450.0 1.67
    bond_coeff 75  94.0 1.8
    bond_coeff 76  374.0 1.64
    bond_coeff 77  260.0 1.526
    bond_coeff 78  260.0 1.526
    bond_coeff 79  317.0 1.5
    bond_coeff 80  260.0 1.526
    bond_coeff 81  317.0 1.5
    bond_coeff 82  222.0 1.81
    bond_coeff 83  222.0 1.81
    bond_coeff 84  320.0 1.425
    bond_coeff 85  337.0 1.449
    bond_coeff 86  382.0 1.448
    bond_coeff 87  317.0 1.51
    bond_coeff 88  260.0 1.526
    bond_coeff 89  367.0 1.471
    bond_coeff 90  337.0 1.463
    bond_coeff 91  222.0 1.81
    bond_coeff 92  337.0 1.475
    bond_coeff 93  553.0 0.945
    bond_coeff 94  340.0 0.1
    bond_coeff 95  530.0 1.34
    bond_coeff 96  530.0 1.34
    bond_coeff 97  530.0 1.34
    bond_coeff 98  260.0 1.526
    bond_coeff 99  317.0 1.5
    bond_coeff 100  317.0 1.5
    bond_coeff 101  320.0 1.425
    bond_coeff 102  337.0 1.449
    bond_coeff 103  382.0 1.448
    bond_coeff 104  337.0 1.475
    bond_coeff 105  530.0 1.34
    bond_coeff 106  317.0 1.5
    bond_coeff 107  530.0 1.34
    bond_coeff 108  222.0 1.76
    bond_coeff 109  469.0 1.4
    bond_coeff 110  469.0 1.4
    bond_coeff 111  469.0 1.4
    bond_coeff 112  469.0 1.4
    bond_coeff 113  268.0 1.529
    bond_coeff 114  317.0 1.5
    bond_coeff 115  222.0 1.81
    bond_coeff 116  222.0 1.81
    bond_coeff 117  390.0 1.43
    bond_coeff 118  390.0 1.47
    bond_coeff 119  320.0 1.41
    bond_coeff 120  245.0 1.781
    bond_coeff 121  340.0 1.79
    bond_coeff 122  337.0 1.449
    bond_coeff 123  340.0 0.3
    bond_coeff 124  382.0 1.448
    bond_coeff 125  340.0 1.09
    bond_coeff 126  317.0 1.51
    bond_coeff 127  317.0 1.51
    bond_coeff 128  317.0 1.51
    bond_coeff 129  268.0 1.529
    bond_coeff 130  367.0 1.471
    bond_coeff 131  337.0 1.463
    bond_coeff 132  337.0 1.449
    bond_coeff 133  337.0 1.475
    bond_coeff 134  317.0 1.51
    bond_coeff 135  212.0 1.843
    bond_coeff 136  245.0 1.945
    bond_coeff 137  200.0 2.19
    bond_coeff 138  340.0 1.77
    bond_coeff 139  317.0 1.495
    bond_coeff 140  317.0 1.504
    bond_coeff 141  317.0 1.504
    bond_coeff 142  317.0 1.504
    bond_coeff 143  317.0 1.495
    bond_coeff 144  337.0 1.449
    bond_coeff 145  280.0 1.51
    bond_coeff 146  532.8 1.46
    bond_coeff 147  382.0 1.448
    bond_coeff 148  375.0 1.49
    bond_coeff 149  212.0 1.82
    bond_coeff 150  337.0 1.475
    bond_coeff 151  337.0 1.449
    bond_coeff 152  187.0 1.86
    bond_coeff 153  317.0 1.51
    bond_coeff 154  530.0 1.34
    bond_coeff 155  274.0 1.336
    bond_coeff 156  250.0 1.74
    bond_coeff 157  166.0 2.038
    bond_coeff 158  300.0 1.685
    bond_coeff 159  250.0 1.73
    bond_coeff 160  340.0 0.5
    bond_coeff 161  250.0 1.76
    bond_coeff 162  250.0 1.76
    bond_coeff 163  250.0 1.73
    bond_coeff 164  250.0 1.76
    bond_coeff 165  250.0 1.74
    bond_coeff 166  222.0 1.81
    bond_coeff 167  144.0 2.15
    bond_coeff 168  340.0 0.1
    bond_coeff 169  550.0 1.12
    bond_coeff 170  650.0 1.157
    bond_coeff 171  400.0 1.41
    bond_coeff 172  550.0 1.24
    bond_coeff 173  1150.0 1.21
    bond_coeff 174  330.0 1.637
    bond_coeff 175  420.0 1.08
    bond_coeff 176  400.0 1.426
    bond_coeff 177  400.0 1.451
    bond_coeff 178  400.0 1.426
    bond_coeff 179  330.0 1.784
    bond_coeff 180  400.0 1.451
    bond_coeff 181  400.0 1.451
    bond_coeff 182  250.0 1.47
    bond_coeff 183  200.0 1.69
    bond_coeff 184  320.0 1.45
    bond_coeff 185  340.0 0.3
    bond_coeff 186  320.0 1.45
    bond_coeff 187  450.0 1.37
    bond_coeff 188  450.0 1.364
    bond_coeff 189  320.0 1.38
    bond_coeff 190  340.0 1.36
    bond_coeff 191  462.0 1.399
    bond_coeff 192  230.0 1.61
    bond_coeff 193  462.0 1.357
    bond_coeff 194  340.0 1.36
    bond_coeff 195  374.0 1.64
    bond_coeff 196  300.0 0.3
    bond_coeff 197  300.0 1.725
    bond_coeff 198  300.0 1.725
    bond_coeff 199  300.0 1.725
    bond_coeff 200  300.0 1.725
    bond_coeff 201  300.0 1.725
    bond_coeff 202  300.0 1.725
    bond_coeff 203  300.0 1.725
    bond_coeff 204  223.0 2.02
    bond_coeff 205  700.0 1.53
    bond_coeff 206  340.0 0.5
    bond_coeff 207  340.0 0.3
    bond_coeff 208  700.0 1.44
    bond_coeff 209  367.0 0.3
    bond_coeff 210  434.0 1.01
    bond_coeff 211  427.0 1.381
    bond_coeff 212  427.0 1.381
    bond_coeff 213  434.0 1.67
    bond_coeff 214  427.0 1.381
    bond_coeff 215  427.0 1.381
    bond_coeff 216  337.0 1.449
    bond_coeff 217  500.0 1.27
    bond_coeff 218  40.0 2.05
    bond_coeff 219  340.0 0.3
    bond_coeff 220  340.0 0.3
    bond_coeff 221  340.0 0.1
    bond_coeff 222  340.0 0.3
    bond_coeff 223  340.0 0.3
    bond_coeff 224  367.0 0.3
    bond_coeff 225  340.0 0.3
    bond_coeff 226  340.0 0.3
    bond_coeff 227  367.0 0.3
    bond_coeff 228  367.0 0.3
    bond_coeff 229  300.0 0.3
    bond_coeff 230  340.0 0.1
    bond_coeff 231  600.0 0.9572
    bond_coeff 232  900.0 0.15
    bond_coeff 233  40.0 2.05
    bond_coeff 234  529.6 0.9572
    bond_coeff 235  600.0 0.9572
    bond_coeff 236  900.0 0.175
    bond_coeff 237  600.0 0.9572
    bond_coeff 238  900.0 0.7
    bond_coeff 239  600.0 1.0
    bond_coeff 240  350.0 1.445
    bond_coeff 241  434.0 1.01
    bond_coeff 242  481.0 1.34
    bond_coeff 243  340.0 1.77
    bond_coeff 244  382.0 1.448
    bond_coeff 245  266.0 1.74
    bond_coeff 246  434.0 1.01
    bond_coeff 247  434.0 1.01
    bond_coeff 248  434.0 1.01
    bond_coeff 249  434.0 1.01
    bond_coeff 250  434.0 1.01
    bond_coeff 251  434.0 1.01
    bond_coeff 252  166.0 1.48
    bond_coeff 253  340.0 1.08
    bond_coeff 254  340.0 1.08
    bond_coeff 255  340.0 1.09
    bond_coeff 256  340.0 1.08
    bond_coeff 257  340.0 1.088
    bond_coeff 258  532.8 1.084
    bond_coeff 259  166.0 1.48
    bond_coeff 260  340.0 1.08
    bond_coeff 261  549.0 1.34
    bond_coeff 262  427.0 1.433
    bond_coeff 263  549.0 1.34
    bond_coeff 264  448.0 1.365
    bond_coeff 265  367.0 1.08
    bond_coeff 266  300.0 1.9
    bond_coeff 267  250.0 2.08
    bond_coeff 268  385.0 1.46
    bond_coeff 269  317.0 1.51
    bond_coeff 270  448.0 1.365
    bond_coeff 271  700.0 1.305
    bond_coeff 272  469.0 1.4
    bond_coeff 273  367.0 1.08
    bond_coeff 274  427.0 1.433
    bond_coeff 275  400.0 1.45
    bond_coeff 276  481.0 1.34
    bond_coeff 277  483.0 1.339
    bond_coeff 278  427.0 1.381
    bond_coeff 279  469.0 1.404
    bond_coeff 280  414.0 1.391
    bond_coeff 281  220.0 1.78
    bond_coeff 282  300.0 1.87
    bond_coeff 283  250.0 2.08
    bond_coeff 284  340.0 1.77
    bond_coeff 285  469.0 1.4
    bond_coeff 286  546.0 1.367
    bond_coeff 287  469.0 1.4
    bond_coeff 288  469.0 1.421
    bond_coeff 289  317.0 1.49
    bond_coeff 290  382.0 1.385
    bond_coeff 291  400.0 1.46
    bond_coeff 292  427.0 1.433
    bond_coeff 293  367.0 1.08
    bond_coeff 294  340.0 1.08
    bond_coeff 295  367.0 1.08
    bond_coeff 296  367.0 1.08
    bond_coeff 297  367.0 1.08
    bond_coeff 298  367.0 1.08
    bond_coeff 299  367.0 1.08
    bond_coeff 300  367.0 1.08
    bond_coeff 301  385.0 1.46
    bond_coeff 302  457.0 1.29
    bond_coeff 303  549.0 1.365
    bond_coeff 304  385.0 1.46
    bond_coeff 305  337.0 1.475
    bond_coeff 306  525.0 1.48
    bond_coeff 307  434.0 1.01
    bond_coeff 308  434.0 1.01
    bond_coeff 309  481.0 1.34
    bond_coeff 310  481.0 1.34
    bond_coeff 311  500.0 1.32
    bond_coeff 312  502.0 1.324
    bond_coeff 313  461.0 1.354
    bond_coeff 314  461.0 1.354
    bond_coeff 315  483.0 1.339
    bond_coeff 316  550.0 1.21
    bond_coeff 317  457.0 1.29
    bond_coeff 318  436.0 1.374
    bond_coeff 319  400.0 1.349
    bond_coeff 320  440.0 1.371
    bond_coeff 321  428.0 1.38
    bond_coeff 322  477.0 1.343
    bond_coeff 323  427.0 1.381
    bond_coeff 324  427.0 1.381
    bond_coeff 325  385.0 1.44
    bond_coeff 326  367.0 1.08
    bond_coeff 327  367.0 1.08
    bond_coeff 328  367.0 1.08
    bond_coeff 329  520.0 1.37
    bond_coeff 330  414.0 1.391
    bond_coeff 331  388.0 1.459
    bond_coeff 332  447.0 1.419
    bond_coeff 333  469.0 1.424
    bond_coeff 334  436.0 1.374
    bond_coeff 335  400.0 1.28
    bond_coeff 336  529.0 1.304
    bond_coeff 337  488.0 1.335
    bond_coeff 338  410.0 1.394
    bond_coeff 339  410.0 1.394
    bond_coeff 340  410.0 1.32
    bond_coeff 341  367.0 1.08
    bond_coeff 342  440.0 1.371
    bond_coeff 343  367.0 1.08
    bond_coeff 344  108.0 2.25
    bond_coeff 345  300.0 1.87
    bond_coeff 346  300.0 1.87
    bond_coeff 347  300.0 1.87
    bond_coeff 348  300.0 1.87
    bond_coeff 349  300.0 1.87
    bond_coeff 350  151.0 2.19
    bond_coeff 351  250.0 2.08
    bond_coeff 352  250.0 2.08
    bond_coeff 353  250.0 2.08
    bond_coeff 354  250.0 2.08
    bond_coeff 355  250.0 2.08
    bond_coeff 356  108.0 2.44
    bond_coeff 357  500.0 1.8
    bond_coeff 358  546.0 1.352
    bond_coeff 359  385.0 1.46
    bond_coeff 360  520.0 1.37
    bond_coeff 361  520.0 1.37
    bond_coeff 362  385.0 1.46
    bond_coeff 363  512.0 1.375
    bond_coeff 364  385.0 1.46
    bond_coeff 365  546.0 1.367
    bond_coeff 366  520.0 1.37
    bond_coeff 367  520.0 1.37
    bond_coeff 368  385.0 1.46
    bond_coeff 369  385.0 1.46
    bond_coeff 370  385.0 1.46
    bond_coeff 371  469.0 1.424
    bond_coeff 372  469.0 1.424
    bond_coeff 373  490.0 1.335
    bond_coeff 374  317.0 1.522
    bond_coeff 375  337.0 1.449
    bond_coeff 376  260.0 1.52
    bond_coeff 377  550.0 1.225
    bond_coeff 378  94.0 2.32
    bond_coeff 379  549.0 1.345
    angle_coeff 1  33.0 109.47
    angle_coeff 2  50.0 109.5
    angle_coeff 3  63.0 112.4
    angle_coeff 4  63.0 112.4
    angle_coeff 5  80.0 109.5
    angle_coeff 6  63.0 112.4
    angle_coeff 7  63.0 112.4
    angle_coeff 8  80.0 109.5
    angle_coeff 9  63.0 112.4
    angle_coeff 10  63.0 112.4
    angle_coeff 11  63.0 112.4
    angle_coeff 12  63.0 112.4
    angle_coeff 13  80.0 109.5
    angle_coeff 14  63.0 114.0
    angle_coeff 15  63.0 112.4
    angle_coeff 16  50.0 108.6
    angle_coeff 17  50.0 114.7
    angle_coeff 18  50.0 114.7
    angle_coeff 19  80.0 109.5
    angle_coeff 20  80.0 109.5
    angle_coeff 21  80.0 109.5
    angle_coeff 22  80.0 110.3
    angle_coeff 23  80.0 111.2
    angle_coeff 24  56.2 109.47
    angle_coeff 25  56.2 109.47
    angle_coeff 26  56.2 109.47
    angle_coeff 27  56.2 109.47
    angle_coeff 28  80.0 111.2
    angle_coeff 29  63.0 112.4
    angle_coeff 30  63.0 114.0
    angle_coeff 31  63.0 112.4
    angle_coeff 32  63.0 112.4
    angle_coeff 33  80.0 111.2
    angle_coeff 34  80.0 111.2
    angle_coeff 35  63.0 115.6
    angle_coeff 36  80.0 120.4
    angle_coeff 37  80.0 121.0
    angle_coeff 38  80.0 121.4
    angle_coeff 39  80.0 126.0
    angle_coeff 40  80.0 121.0
    angle_coeff 41  80.0 120.4
    angle_coeff 42  70.0 115.0
    angle_coeff 43  80.0 120.4
    angle_coeff 44  70.0 120.0
    angle_coeff 45  85.0 120.0
    angle_coeff 46  70.0 108.0
    angle_coeff 47  70.0 116.0
    angle_coeff 48  80.0 111.0
    angle_coeff 49  80.0 117.2
    angle_coeff 50  80.0 120.4
    angle_coeff 51  81.0 111.4
    angle_coeff 52  81.0 111.4
    angle_coeff 53  83.0 123.4
    angle_coeff 54  75.0 109.0
    angle_coeff 55  75.0 119.0
    angle_coeff 56  70.0 114.2
    angle_coeff 57  70.0 116.6
    angle_coeff 58  70.0 116.6
    angle_coeff 59  70.0 116.6
    angle_coeff 60  70.0 116.6
    angle_coeff 61  70.0 116.6
    angle_coeff 62  80.0 122.9
    angle_coeff 63  81.0 111.4
    angle_coeff 64  70.0 116.0
    angle_coeff 65  80.0 120.4
    angle_coeff 66  35.0 115.0
    angle_coeff 67  35.0 115.0
    angle_coeff 68  35.0 123.0
    angle_coeff 69  40.0 114.0
    angle_coeff 70  40.0 115.0
    angle_coeff 71  40.0 115.0
    angle_coeff 72  70.0 115.5
    angle_coeff 73  80.0 125.3
    angle_coeff 74  35.0 115.0
    angle_coeff 75  70.0 115.5
    angle_coeff 76  70.0 116.0
    angle_coeff 77  70.0 120.0
    angle_coeff 78  80.0 120.4
    angle_coeff 79  81.0 111.4
    angle_coeff 80  85.0 120.0
    angle_coeff 81  70.0 116.0
    angle_coeff 82  80.0 116.0
    angle_coeff 83  80.0 124.0
    angle_coeff 84  65.0 117.0
    angle_coeff 85  70.0 117.0
    angle_coeff 86  70.0 117.0
    angle_coeff 87  70.0 117.0
    angle_coeff 88  70.0 117.0
    angle_coeff 89  80.0 126.0
    angle_coeff 90  80.0 126.0
    angle_coeff 91  35.0 122.0
    angle_coeff 92  80.0 122.5
    angle_coeff 93  70.0 114.1
    angle_coeff 94  70.0 118.6
    angle_coeff 95  70.0 118.6
    angle_coeff 96  80.0 120.6
    angle_coeff 97  70.0 111.3
    angle_coeff 98  70.0 111.3
    angle_coeff 99  80.0 128.8
    angle_coeff 100  75.0 109.0
    angle_coeff 101  75.0 119.0
    angle_coeff 102  70.0 116.0
    angle_coeff 103  80.0 120.4
    angle_coeff 104  80.0 128.2
    angle_coeff 105  70.0 115.4
    angle_coeff 106  70.0 118.6
    angle_coeff 107  80.0 120.9
    angle_coeff 108  70.0 116.6
    angle_coeff 109  80.0 122.9
    angle_coeff 110  10.0 117.0
    angle_coeff 111  35.0 113.0
    angle_coeff 112  35.0 113.0
    angle_coeff 113  55.0 108.5
    angle_coeff 114  55.0 108.5
    angle_coeff 115  55.0 108.5
    angle_coeff 116  55.0 108.5
    angle_coeff 117  49.0 105.4
    angle_coeff 118  5.0 109.47
    angle_coeff 119  10.0 109.47
    angle_coeff 120  10.0 109.47
    angle_coeff 121  35.0 109.0
    angle_coeff 122  10.0 109.47
    angle_coeff 123  35.0 113.0
    angle_coeff 124  55.0 108.5
    angle_coeff 125  55.0 108.5
    angle_coeff 126  100.0 120.5
    angle_coeff 127  74.0 110.0
    angle_coeff 128  100.0 126.0
    angle_coeff 129  10.0 109.47
    angle_coeff 130  33.0 109.47
    angle_coeff 131  63.0 112.4
    angle_coeff 132  63.0 111.1
    angle_coeff 133  80.0 109.5
    angle_coeff 134  63.0 111.1
    angle_coeff 135  63.0 111.5
    angle_coeff 136  63.0 112.4
    angle_coeff 137  80.0 109.5
    angle_coeff 138  63.0 111.1
    angle_coeff 139  63.0 111.5
    angle_coeff 140  63.0 111.5
    angle_coeff 141  63.0 111.5
    angle_coeff 142  80.0 109.5
    angle_coeff 143  80.0 109.5
    angle_coeff 144  80.0 109.5
    angle_coeff 145  80.0 109.5
    angle_coeff 146  63.0 110.1
    angle_coeff 147  80.0 109.5
    angle_coeff 148  80.0 109.7
    angle_coeff 149  80.0 109.7
    angle_coeff 150  56.2 109.47
    angle_coeff 151  56.2 109.47
    angle_coeff 152  56.2 109.47
    angle_coeff 153  56.2 109.47
    angle_coeff 154  80.0 109.7
    angle_coeff 155  63.0 112.4
    angle_coeff 156  80.0 109.5
    angle_coeff 157  80.0 109.5
    angle_coeff 158  80.0 109.5
    angle_coeff 159  80.0 109.5
    angle_coeff 160  70.0 124.0
    angle_coeff 161  70.0 124.0
    angle_coeff 162  70.0 124.0
    angle_coeff 163  70.0 118.0
    angle_coeff 164  70.0 118.0
    angle_coeff 165  70.0 118.0
    angle_coeff 166  70.0 124.0
    angle_coeff 167  70.0 124.0
    angle_coeff 168  70.0 124.0
    angle_coeff 169  70.0 118.0
    angle_coeff 170  70.0 118.0
    angle_coeff 171  70.0 118.0
    angle_coeff 172  70.0 118.0
    angle_coeff 173  70.0 118.0
    angle_coeff 174  70.0 118.0
    angle_coeff 175  70.0 118.0
    angle_coeff 176  70.0 124.0
    angle_coeff 177  70.0 124.0
    angle_coeff 178  70.0 124.0
    angle_coeff 179  70.0 124.0
    angle_coeff 180  70.0 118.0
    angle_coeff 181  70.0 118.0
    angle_coeff 182  70.0 118.0
    angle_coeff 183  70.0 120.0
    angle_coeff 184  85.0 120.0
    angle_coeff 185  85.0 120.0
    angle_coeff 186  85.0 120.0
    angle_coeff 187  85.0 120.0
    angle_coeff 188  85.0 120.0
    angle_coeff 189  77.0 109.1
    angle_coeff 190  40.0 109.5
    angle_coeff 191  50.0 109.5
    angle_coeff 192  63.0 111.1
    angle_coeff 193  63.0 111.1
    angle_coeff 194  40.0 109.5
    angle_coeff 195  40.0 109.5
    angle_coeff 196  63.0 109.5
    angle_coeff 197  50.0 109.5
    angle_coeff 198  50.0 109.5
    angle_coeff 199  58.35 112.7
    angle_coeff 200  63.0 111.1
    angle_coeff 201  50.0 108.6
    angle_coeff 202  50.0 114.7
    angle_coeff 203  58.35 112.7
    angle_coeff 204  50.0 109.5
    angle_coeff 205  50.0 109.5
    angle_coeff 206  69.0 109.8
    angle_coeff 207  69.0 109.8
    angle_coeff 208  78.0 111.7
    angle_coeff 209  50.0 108.6
    angle_coeff 210  50.0 109.5
    angle_coeff 211  63.0 110.1
    angle_coeff 212  80.0 109.7
    angle_coeff 213  80.0 109.7
    angle_coeff 214  50.0 114.7
    angle_coeff 215  56.2 109.47
    angle_coeff 216  56.2 109.47
    angle_coeff 217  56.2 109.47
    angle_coeff 218  56.2 109.47
    angle_coeff 219  80.0 111.2
    angle_coeff 220  33.0 107.8
    angle_coeff 221  35.0 108.5
    angle_coeff 222  35.0 108.5
    angle_coeff 223  35.0 109.5
    angle_coeff 224  35.0 109.5
    angle_coeff 225  35.0 109.5
    angle_coeff 226  35.0 109.5
    angle_coeff 227  35.0 109.5
    angle_coeff 228  35.0 109.5
    angle_coeff 229  35.0 109.5
    angle_coeff 230  35.0 109.5
    angle_coeff 231  35.0 109.5
    angle_coeff 232  37.5 110.7
    angle_coeff 233  40.0 107.0
    angle_coeff 234  51.0 107.6
    angle_coeff 235  35.0 109.5
    angle_coeff 236  50.0 109.5
    angle_coeff 237  63.0 111.1
    angle_coeff 238  63.0 112.4
    angle_coeff 239  35.0 109.5
    angle_coeff 240  40.0 109.5
    angle_coeff 241  40.0 109.5
    angle_coeff 242  50.0 109.5
    angle_coeff 243  50.0 109.5
    angle_coeff 244  50.0 109.5
    angle_coeff 245  50.0 114.7
    angle_coeff 246  63.0 112.0
    angle_coeff 247  63.0 114.0
    angle_coeff 248  63.0 114.0
    angle_coeff 249  80.0 111.2
    angle_coeff 250  35.0 109.5
    angle_coeff 251  37.5 110.7
    angle_coeff 252  50.0 109.5
    angle_coeff 253  58.35 112.7
    angle_coeff 254  35.0 109.5
    angle_coeff 255  80.0 111.2
    angle_coeff 256  80.0 111.2
    angle_coeff 257  35.0 109.5
    angle_coeff 258  80.0 111.2
    angle_coeff 259  35.0 109.5
    angle_coeff 260  63.0 110.1
    angle_coeff 261  65.0 109.0
    angle_coeff 262  35.0 109.5
    angle_coeff 263  80.0 111.2
    angle_coeff 264  35.0 109.5
    angle_coeff 265  63.0 114.0
    angle_coeff 266  41.0 109.5
    angle_coeff 267  43.0 109.5
    angle_coeff 268  43.0 109.5
    angle_coeff 269  51.0 107.6
    angle_coeff 270  69.0 109.8
    angle_coeff 271  69.0 110.0
    angle_coeff 272  69.0 110.0
    angle_coeff 273  78.0 111.7
    angle_coeff 274  75.0 111.0
    angle_coeff 275  75.0 112.0
    angle_coeff 276  35.0 109.5
    angle_coeff 277  50.0 108.6
    angle_coeff 278  50.0 109.5
    angle_coeff 279  35.0 109.5
    angle_coeff 280  63.0 115.6
    angle_coeff 281  35.0 109.5
    angle_coeff 282  63.0 114.0
    angle_coeff 283  35.0 109.5
    angle_coeff 284  50.0 114.7
    angle_coeff 285  63.0 114.0
    angle_coeff 286  35.0 109.5
    angle_coeff 287  63.0 114.0
    angle_coeff 288  35.0 109.5
    angle_coeff 289  63.0 115.6
    angle_coeff 290  35.0 109.5
    angle_coeff 291  80.0 110.0
    angle_coeff 292  80.0 113.0
    angle_coeff 293  37.5 110.7
    angle_coeff 294  35.0 105.0
    angle_coeff 295  63.0 105.0
    angle_coeff 296  35.0 109.5
    angle_coeff 297  80.0 111.2
    angle_coeff 298  35.0 105.0
    angle_coeff 299  63.0 111.1
    angle_coeff 300  41.0 109.5
    angle_coeff 301  43.0 109.5
    angle_coeff 302  35.0 109.5
    angle_coeff 303  50.0 109.5
    angle_coeff 304  50.0 109.5
    angle_coeff 305  35.0 109.5
    angle_coeff 306  80.0 109.7
    angle_coeff 307  35.0 109.5
    angle_coeff 308  60.0 112.0
    angle_coeff 309  70.0 124.0
    angle_coeff 310  70.0 124.0
    angle_coeff 311  70.0 124.0
    angle_coeff 312  70.0 118.0
    angle_coeff 313  70.0 118.0
    angle_coeff 314  70.0 118.0
    angle_coeff 315  70.0 124.0
    angle_coeff 316  70.0 124.0
    angle_coeff 317  70.0 124.0
    angle_coeff 318  70.0 118.0
    angle_coeff 319  70.0 118.0
    angle_coeff 320  70.0 118.0
    angle_coeff 321  70.0 118.0
    angle_coeff 322  70.0 118.0
    angle_coeff 323  70.0 118.0
    angle_coeff 324  70.0 118.0
    angle_coeff 325  70.0 124.0
    angle_coeff 326  70.0 124.0
    angle_coeff 327  70.0 124.0
    angle_coeff 328  70.0 124.0
    angle_coeff 329  70.0 118.0
    angle_coeff 330  70.0 118.0
    angle_coeff 331  70.0 118.0
    angle_coeff 332  70.0 118.0
    angle_coeff 333  70.0 118.0
    angle_coeff 334  70.0 118.0
    angle_coeff 335  70.0 118.0
    angle_coeff 336  35.0 92.07
    angle_coeff 337  44.0 96.0
    angle_coeff 338  44.0 96.0
    angle_coeff 339  44.0 96.0
    angle_coeff 340  5.0 109.47
    angle_coeff 341  10.0 109.47
    angle_coeff 342  10.0 160.0
    angle_coeff 343  150.0 96.7
    angle_coeff 344  150.0 96.7
    angle_coeff 345  150.0 96.7
    angle_coeff 346  150.0 96.7
    angle_coeff 347  50.0 96.0
    angle_coeff 348  62.0 98.9
    angle_coeff 349  62.0 98.9
    angle_coeff 350  68.0 103.7
    angle_coeff 351  68.0 103.7
    angle_coeff 352  68.0 103.7
    angle_coeff 353  65.0 100.0
    angle_coeff 354  5.0 109.47
    angle_coeff 355  10.0 109.47
    angle_coeff 356  10.0 160.0
    angle_coeff 357  150.0 96.7
    angle_coeff 358  150.0 96.7
    angle_coeff 359  150.0 96.7
    angle_coeff 360  150.0 96.7
    angle_coeff 361  62.0 104.2
    angle_coeff 362  62.0 104.2
    angle_coeff 363  74.0 92.4
    angle_coeff 364  10.0 130.0
    angle_coeff 365  10.0 130.0
    angle_coeff 366  74.0 97.0
    angle_coeff 367  10.0 130.0
    angle_coeff 368  74.0 90.0
    angle_coeff 369  74.0 97.0
    angle_coeff 370  74.0 97.0
    angle_coeff 371  62.0 94.0
    angle_coeff 372  10.0 109.47
    angle_coeff 373  33.0 109.47
    angle_coeff 374  150.0 180.0
    angle_coeff 375  170.0 180.0
    angle_coeff 376  100.0 180.0
    angle_coeff 377  150.0 180.0
    angle_coeff 378  140.0 180.0
    angle_coeff 379  150.0 180.0
    angle_coeff 380  10.0 90.0
    angle_coeff 381  112.0 180.0
    angle_coeff 382  150.0 180.0
    angle_coeff 383  160.0 180.0
    angle_coeff 384  150.0 180.0
    angle_coeff 385  160.0 180.0
    angle_coeff 386  160.0 180.0
    angle_coeff 387  150.0 180.0
    angle_coeff 388  150.0 180.0
    angle_coeff 389  100.0 111.8
    angle_coeff 390  83.0 116.9
    angle_coeff 391  83.0 116.9
    angle_coeff 392  100.0 111.8
    angle_coeff 393  55.0 108.5
    angle_coeff 394  55.0 108.5
    angle_coeff 395  83.0 116.9
    angle_coeff 396  100.0 111.8
    angle_coeff 397  60.0 109.5
    angle_coeff 398  83.0 116.9
    angle_coeff 399  5.0 109.47
    angle_coeff 400  10.0 109.47
    angle_coeff 401  75.0 111.0
    angle_coeff 402  10.0 109.47
    angle_coeff 403  75.0 111.0
    angle_coeff 404  75.0 111.0
    angle_coeff 405  75.0 111.0
    angle_coeff 406  83.0 116.9
    angle_coeff 407  100.0 111.8
    angle_coeff 408  60.0 109.5
    angle_coeff 409  100.0 113.0
    angle_coeff 410  100.0 113.0
    angle_coeff 411  100.0 113.0
    angle_coeff 412  70.0 104.5
    angle_coeff 413  10.0 125.0
    angle_coeff 414  100.0 120.5
    angle_coeff 415  100.0 120.5
    angle_coeff 416  100.0 120.5
    angle_coeff 417  100.0 120.5
    angle_coeff 418  100.0 120.5
    angle_coeff 419  100.0 120.5
    angle_coeff 420  10.0 125.0
    angle_coeff 421  70.0 106.5
    angle_coeff 422  70.0 107.0
    angle_coeff 423  10.0 125.0
    angle_coeff 424  70.0 104.0
    angle_coeff 425  70.0 106.5
    angle_coeff 426  70.0 106.5
    angle_coeff 427  70.0 108.9
    angle_coeff 428  20.0 145.0
    angle_coeff 429  40.0 130.0
    angle_coeff 430  33.0 109.47
    angle_coeff 431  62.0 96.0
    angle_coeff 432  74.0 107.0
    angle_coeff 433  10.0 90.0
    angle_coeff 434  50.0 121.9
    angle_coeff 435  70.0 126.4
    angle_coeff 436  46.0 115.7
    angle_coeff 437  50.0 121.9
    angle_coeff 438  50.0 121.9
    angle_coeff 439  50.0 118.0
    angle_coeff 440  50.0 121.9
    angle_coeff 441  50.0 118.0
    angle_coeff 442  50.0 121.9
    angle_coeff 443  70.0 112.0
    angle_coeff 444  70.0 108.6
    angle_coeff 445  10.0 109.5
    angle_coeff 446  10.0 100.0
    angle_coeff 447  35.0 110.2
    angle_coeff 448  35.0 119.8
    angle_coeff 449  35.0 120.0
    angle_coeff 450  38.0 118.4
    angle_coeff 451  38.0 118.4
    angle_coeff 452  38.0 118.4
    angle_coeff 453  38.0 118.4
    angle_coeff 454  35.0 119.8
    angle_coeff 455  50.0 118.0
    angle_coeff 456  50.0 121.9
    angle_coeff 457  70.0 118.0
    angle_coeff 458  35.0 120.0
    angle_coeff 459  35.0 118.0
    angle_coeff 460  70.0 125.2
    angle_coeff 461  50.0 120.0
    angle_coeff 462  100.0 111.0
    angle_coeff 463  35.0 119.8
    angle_coeff 464  70.0 118.0
    angle_coeff 465  70.0 117.0
    angle_coeff 466  35.0 119.8
    angle_coeff 467  70.0 118.0
    angle_coeff 468  35.0 119.8
    angle_coeff 469  70.0 118.0
    angle_coeff 470  40.0 113.0
    angle_coeff 471  55.0 128.0
    angle_coeff 472  70.0 121.0
    angle_coeff 473  20.0 126.0
    angle_coeff 474  33.0 109.47
    angle_coeff 475  75.0 104.52
    angle_coeff 476  50.0 52.26
    angle_coeff 477  34.05 104.52
    angle_coeff 478  75.0 109.5
    angle_coeff 479  50.0 54.75
    angle_coeff 480  75.0 104.52
    angle_coeff 481  50.0 109.47
    angle_coeff 482  50.0 110.6948
    angle_coeff 483  75.0 109.47
    angle_coeff 484  51.8 107.2
    angle_coeff 485  51.8 107.2
    angle_coeff 486  51.8 107.2
    angle_coeff 487  51.8 107.2
    angle_coeff 488  51.8 107.2
    angle_coeff 489  51.8 107.2
    angle_coeff 490  51.8 107.2
    angle_coeff 491  51.8 107.2
    angle_coeff 492  51.8 107.2
    angle_coeff 493  51.8 107.2
    angle_coeff 494  63.0 111.1
    angle_coeff 495  10.0 100.0
    angle_coeff 496  35.0 109.5
    angle_coeff 497  43.2 108.1
    angle_coeff 498  43.2 108.1
    angle_coeff 499  43.2 108.1
    angle_coeff 500  43.6 106.4
    angle_coeff 501  10.0 109.5
    angle_coeff 502  35.0 116.0
    angle_coeff 503  50.0 116.0
    angle_coeff 504  50.0 116.0
    angle_coeff 505  63.0 112.0
    angle_coeff 506  35.0 115.0
    angle_coeff 507  50.0 108.6
    angle_coeff 508  50.0 108.6
    angle_coeff 509  50.0 109.5
    angle_coeff 510  33.0 109.47
    angle_coeff 511  10.0 109.5
    angle_coeff 512  33.0 109.47
    angle_coeff 513  37.5 109.47
    angle_coeff 514  80.0 108.0
    angle_coeff 515  80.0 121.5
    angle_coeff 516  85.0 119.7
    angle_coeff 517  70.0 119.7
    angle_coeff 518  70.0 130.0
    angle_coeff 519  10.0 90.0
    angle_coeff 520  35.0 114.5
    angle_coeff 521  35.0 117.0
    angle_coeff 522  35.0 117.0
    angle_coeff 523  35.0 119.7
    angle_coeff 524  35.0 120.0
    angle_coeff 525  50.0 112.0
    angle_coeff 526  60.0 114.0
    angle_coeff 527  2.0 90.0
    angle_coeff 528  35.0 120.0
    angle_coeff 529  70.0 123.0
    angle_coeff 530  70.0 123.0
    angle_coeff 531  70.0 124.0
    angle_coeff 532  70.0 124.0
    angle_coeff 533  75.0 121.5
    angle_coeff 534  80.0 121.5
    angle_coeff 535  85.0 119.4
    angle_coeff 536  85.0 120.7
    angle_coeff 537  35.0 123.3
    angle_coeff 538  85.0 117.0
    angle_coeff 539  85.0 119.7
    angle_coeff 540  2.0 90.0
    angle_coeff 541  35.0 120.0
    angle_coeff 542  70.0 123.0
    angle_coeff 543  70.0 123.0
    angle_coeff 544  70.0 124.0
    angle_coeff 545  35.0 119.1
    angle_coeff 546  70.0 120.0
    angle_coeff 547  70.0 120.0
    angle_coeff 548  70.0 121.2
    angle_coeff 549  85.0 119.4
    angle_coeff 550  35.0 119.1
    angle_coeff 551  35.0 119.7
    angle_coeff 552  60.0 114.0
    angle_coeff 553  75.0 120.0
    angle_coeff 554  35.0 135.0
    angle_coeff 555  70.0 119.7
    angle_coeff 556  70.0 124.0
    angle_coeff 557  35.0 119.1
    angle_coeff 558  35.0 119.1
    angle_coeff 559  70.0 120.0
    angle_coeff 560  70.0 120.0
    angle_coeff 561  70.0 121.2
    angle_coeff 562  85.0 119.4
    angle_coeff 563  40.0 121.0
    angle_coeff 564  80.0 122.0
    angle_coeff 565  80.0 122.0
    angle_coeff 566  80.0 125.0
    angle_coeff 567  70.0 120.0
    angle_coeff 568  85.0 120.0
    angle_coeff 569  70.0 119.7
    angle_coeff 570  10.0 90.0
    angle_coeff 571  63.0 120.0
    angle_coeff 572  70.0 120.0
    angle_coeff 573  70.0 120.0
    angle_coeff 574  70.0 120.0
    angle_coeff 575  70.0 120.0
    angle_coeff 576  70.0 120.0
    angle_coeff 577  70.0 120.0
    angle_coeff 578  70.0 120.0
    angle_coeff 579  70.0 120.0
    angle_coeff 580  70.0 120.0
    angle_coeff 581  70.0 124.0
    angle_coeff 582  75.0 120.0
    angle_coeff 583  80.0 120.0
    angle_coeff 584  80.0 120.0
    angle_coeff 585  85.0 119.4
    angle_coeff 586  85.0 120.0
    angle_coeff 587  2.0 90.0
    angle_coeff 588  35.0 119.1
    angle_coeff 589  35.0 120.0
    angle_coeff 590  35.0 120.0
    angle_coeff 591  70.0 124.0
    angle_coeff 592  70.0 120.0
    angle_coeff 593  70.0 120.0
    angle_coeff 594  70.0 120.1
    angle_coeff 595  70.0 120.1
    angle_coeff 596  35.0 116.0
    angle_coeff 597  70.0 116.0
    angle_coeff 598  70.0 116.0
    angle_coeff 599  70.0 119.3
    angle_coeff 600  70.0 120.0
    angle_coeff 601  70.0 121.5
    angle_coeff 602  70.0 121.5
    angle_coeff 603  70.0 124.0
    angle_coeff 604  75.0 120.0
    angle_coeff 605  35.0 120.0
    angle_coeff 606  70.0 108.7
    angle_coeff 607  70.0 116.0
    angle_coeff 608  70.0 120.0
    angle_coeff 609  70.0 121.5
    angle_coeff 610  70.0 123.3
    angle_coeff 611  35.0 120.0
    angle_coeff 612  63.0 120.0
    angle_coeff 613  70.0 108.7
    angle_coeff 614  70.0 117.3
    angle_coeff 615  70.0 123.5
    angle_coeff 616  70.0 128.6
    angle_coeff 617  70.0 128.6
    angle_coeff 618  35.0 119.1
    angle_coeff 619  70.0 108.7
    angle_coeff 620  70.0 123.3
    angle_coeff 621  85.0 119.4
    angle_coeff 622  75.0 120.0
    angle_coeff 623  75.0 120.0
    angle_coeff 624  85.0 119.4
    angle_coeff 625  35.0 120.0
    angle_coeff 626  85.0 120.0
    angle_coeff 627  35.0 126.9
    angle_coeff 628  63.0 106.4
    angle_coeff 629  70.0 107.4
    angle_coeff 630  35.0 120.0
    angle_coeff 631  63.0 120.0
    angle_coeff 632  70.0 124.0
    angle_coeff 633  35.0 128.2
    angle_coeff 634  70.0 111.8
    angle_coeff 635  70.0 124.1
    angle_coeff 636  85.0 120.0
    angle_coeff 637  70.0 124.0
    angle_coeff 638  10.0 90.0
    angle_coeff 639  35.0 120.0
    angle_coeff 640  2.0 90.0
    angle_coeff 641  35.0 120.0
    angle_coeff 642  70.0 118.7
    angle_coeff 643  70.0 124.0
    angle_coeff 644  35.0 123.3
    angle_coeff 645  85.0 117.0
    angle_coeff 646  2.0 90.0
    angle_coeff 647  35.0 120.0
    angle_coeff 648  70.0 124.0
    angle_coeff 649  70.0 124.0
    angle_coeff 650  35.0 106.0
    angle_coeff 651  35.0 122.0
    angle_coeff 652  35.0 120.0
    angle_coeff 653  70.0 124.0
    angle_coeff 654  70.0 124.0
    angle_coeff 655  40.0 109.5
    angle_coeff 656  50.0 109.5
    angle_coeff 657  50.0 109.5
    angle_coeff 658  80.0 109.5
    angle_coeff 659  80.0 109.5
    angle_coeff 660  92.6 111.55
    angle_coeff 661  92.6 111.55
    angle_coeff 662  33.0 109.5
    angle_coeff 663  35.0 109.5
    angle_coeff 664  35.0 109.5
    angle_coeff 665  37.5 110.7
    angle_coeff 666  35.0 109.5
    angle_coeff 667  50.0 109.5
    angle_coeff 668  50.0 109.5
    angle_coeff 669  50.0 113.0
    angle_coeff 670  10.0 100.0
    angle_coeff 671  43.6 109.5
    angle_coeff 672  10.0 100.0
    angle_coeff 673  55.0 114.0
    angle_coeff 674  35.0 109.5
    angle_coeff 675  35.0 109.5
    angle_coeff 676  35.0 109.5
    angle_coeff 677  35.0 109.5
    angle_coeff 678  35.0 109.5
    angle_coeff 679  10.0 100.0
    angle_coeff 680  50.0 118.0
    angle_coeff 681  35.0 113.0
    angle_coeff 682  35.0 118.4
    angle_coeff 683  35.0 120.0
    angle_coeff 684  50.0 123.2
    angle_coeff 685  50.0 123.2
    angle_coeff 686  50.0 123.2
    angle_coeff 687  35.0 118.4
    angle_coeff 688  35.0 118.4
    angle_coeff 689  35.0 120.0
    angle_coeff 690  35.0 120.0
    angle_coeff 691  35.0 120.0
    angle_coeff 692  70.0 120.5
    angle_coeff 693  70.0 120.0
    angle_coeff 694  5.0 120.0
    angle_coeff 695  35.0 113.0
    angle_coeff 696  50.0 118.0
    angle_coeff 697  70.0 117.0
    angle_coeff 698  70.0 120.5
    angle_coeff 699  70.0 117.0
    angle_coeff 700  70.0 117.0
    angle_coeff 701  5.0 119.8
    angle_coeff 702  70.0 118.6
    angle_coeff 703  70.0 118.6
    angle_coeff 704  70.0 111.0
    angle_coeff 705  70.0 112.2
    angle_coeff 706  70.0 111.0
    angle_coeff 707  70.0 117.0
    angle_coeff 708  70.0 114.0
    angle_coeff 709  70.0 126.4
    angle_coeff 710  35.0 116.8
    angle_coeff 711  35.0 119.2
    angle_coeff 712  70.0 121.6
    angle_coeff 713  35.0 118.0
    angle_coeff 714  70.0 125.2
    angle_coeff 715  70.0 125.2
    angle_coeff 716  30.0 125.8
    angle_coeff 717  70.0 125.8
    angle_coeff 718  56.0 113.1
    angle_coeff 719  56.0 118.4
    angle_coeff 720  70.0 118.4
    angle_coeff 721  70.0 118.4
    angle_coeff 722  30.0 128.8
    angle_coeff 723  70.0 105.4
    angle_coeff 724  70.0 109.8
    angle_coeff 725  70.0 128.8
    angle_coeff 726  35.0 123.1
    angle_coeff 727  35.0 120.0
    angle_coeff 728  56.0 113.1
    angle_coeff 729  70.0 109.8
    angle_coeff 730  35.0 120.0
    angle_coeff 731  56.0 113.1
    angle_coeff 732  70.0 109.8
    angle_coeff 733  70.0 109.8
    angle_coeff 734  70.0 109.8
    angle_coeff 735  70.0 111.6
    angle_coeff 736  35.0 120.0
    angle_coeff 737  70.0 109.8
    angle_coeff 738  70.0 116.0
    angle_coeff 739  35.0 115.45
    angle_coeff 740  70.0 115.5
    angle_coeff 741  70.0 119.3
    angle_coeff 742  70.0 123.3
    angle_coeff 743  70.0 129.1
    angle_coeff 744  35.0 115.45
    angle_coeff 745  70.0 120.0
    angle_coeff 746  85.0 134.9
    angle_coeff 747  70.0 126.2
    angle_coeff 748  70.0 106.2
    angle_coeff 749  70.0 110.6
    angle_coeff 750  70.0 111.0
    angle_coeff 751  70.0 120.0
    angle_coeff 752  70.0 127.7
    angle_coeff 753  70.0 127.7
    angle_coeff 754  85.0 117.3
    angle_coeff 755  85.0 119.2
    angle_coeff 756  70.0 111.0
    angle_coeff 757  70.0 126.2
    angle_coeff 758  70.0 130.0
    angle_coeff 759  70.0 132.4
    angle_coeff 760  85.0 134.9
    angle_coeff 761  85.0 134.9
    angle_coeff 762  85.0 108.8
    angle_coeff 763  85.0 116.2
    angle_coeff 764  85.0 116.2
    angle_coeff 765  70.0 130.0
    angle_coeff 766  70.0 107.3
    angle_coeff 767  70.0 107.7
    angle_coeff 768  85.0 108.8
    angle_coeff 769  85.0 134.9
    angle_coeff 770  85.0 134.9
    angle_coeff 771  70.0 106.2
    angle_coeff 772  70.0 126.2
    angle_coeff 773  70.0 125.2
    angle_coeff 774  10.0 125.0
    angle_coeff 775  10.0 125.0
    angle_coeff 776  70.0 103.8
    angle_coeff 777  10.0 125.0
    angle_coeff 778  70.0 109.0
    angle_coeff 779  70.0 110.0
    angle_coeff 780  70.0 110.0
    angle_coeff 781  70.0 104.1
    angle_coeff 782  70.0 110.0
    angle_coeff 783  70.0 104.1
    angle_coeff 784  70.0 105.3
    angle_coeff 785  35.0 120.0
    angle_coeff 786  35.0 120.0
    angle_coeff 787  70.0 113.9
    angle_coeff 788  35.0 123.05
    angle_coeff 789  35.0 123.05
    angle_coeff 790  35.0 120.0
    angle_coeff 791  35.0 123.05
    angle_coeff 792  70.0 113.9
    angle_coeff 793  45.0 102.6
    angle_coeff 794  100.0 108.23
    angle_coeff 795  45.0 109.5
    angle_coeff 796  45.0 102.6
    angle_coeff 797  45.0 102.6
    angle_coeff 798  45.0 109.5
    angle_coeff 799  100.0 108.23
    angle_coeff 800  45.0 109.5
    angle_coeff 801  45.0 109.5
    angle_coeff 802  45.0 109.5
    angle_coeff 803  45.0 108.23
    angle_coeff 804  45.0 109.5
    angle_coeff 805  100.0 108.23
    angle_coeff 806  140.0 119.9
    angle_coeff 807  33.0 109.47
    angle_coeff 808  33.0 109.47
    angle_coeff 809  150.0 180.0
    angle_coeff 810  62.0 98.9
    angle_coeff 811  62.0 102.0
    angle_coeff 812  75.0 96.4
    angle_coeff 813  74.0 108.7
    angle_coeff 814  74.0 108.9
    angle_coeff 815  104.0 119.0
    angle_coeff 816  100.0 103.0
    angle_coeff 817  120.0 107.0
    angle_coeff 818  62.0 102.0
    angle_coeff 819  74.0 108.9
    angle_coeff 820  62.0 102.0
    angle_coeff 821  74.0 107.2
    angle_coeff 822  75.0 96.4
    angle_coeff 823  100.0 103.0
    angle_coeff 824  62.0 102.0
    angle_coeff 825  35.0 126.8
    angle_coeff 826  70.0 128.6
    angle_coeff 827  70.0 128.6
    angle_coeff 828  35.0 126.8
    angle_coeff 829  70.0 125.0
    angle_coeff 830  70.0 125.0
    angle_coeff 831  85.0 106.4
    angle_coeff 832  70.0 132.8
    angle_coeff 833  70.0 132.8
    angle_coeff 834  70.0 104.4
    angle_coeff 835  85.0 122.7
    angle_coeff 836  85.0 122.7
    angle_coeff 837  70.0 125.0
    angle_coeff 838  70.0 125.0
    angle_coeff 839  70.0 120.2
    angle_coeff 840  35.0 117.0
    angle_coeff 841  35.0 125.0
    angle_coeff 842  35.0 120.0
    angle_coeff 843  70.0 120.0
    angle_coeff 844  70.0 125.0
    angle_coeff 845  70.0 125.0
    angle_coeff 846  70.0 126.2
    angle_coeff 847  35.0 120.0
    angle_coeff 848  70.0 115.0
    angle_coeff 849  70.0 115.0
    angle_coeff 850  70.0 120.0
    angle_coeff 851  70.0 125.0
    angle_coeff 852  70.0 126.1
    angle_coeff 853  70.0 126.2
    angle_coeff 854  70.0 120.0
    angle_coeff 855  70.0 120.0
    angle_coeff 856  70.0 122.0
    angle_coeff 857  70.0 130.0
    angle_coeff 858  70.0 106.2
    angle_coeff 859  70.0 127.7
    angle_coeff 860  35.0 120.0
    angle_coeff 861  70.0 111.0
    angle_coeff 862  70.0 124.5
    angle_coeff 863  35.0 128.2
    angle_coeff 864  70.0 111.0
    angle_coeff 865  70.0 130.7
    angle_coeff 866  70.0 125.0
    angle_coeff 867  70.0 121.6
    angle_coeff 868  70.0 125.0
    angle_coeff 869  35.0 113.4
    angle_coeff 870  35.0 125.0
    angle_coeff 871  35.0 130.7
    angle_coeff 872  35.0 130.7
    angle_coeff 873  70.0 110.0
    angle_coeff 874  35.0 121.6
    angle_coeff 875  70.0 121.6
    angle_coeff 876  70.0 121.6
    angle_coeff 877  85.0 120.0
    angle_coeff 878  35.0 120.0
    angle_coeff 879  70.0 118.9
    angle_coeff 880  35.0 120.0
    angle_coeff 881  70.0 108.7
    angle_coeff 882  35.0 130.7
    angle_coeff 883  70.0 106.3
    angle_coeff 884  70.0 108.0
    angle_coeff 885  70.0 111.0
    angle_coeff 886  70.0 130.7
    angle_coeff 887  70.0 120.0
    angle_coeff 888  70.0 120.0
    angle_coeff 889  70.0 120.0
    angle_coeff 890  70.0 121.6
    angle_coeff 891  70.0 121.6
    angle_coeff 892  35.0 132.1
    angle_coeff 893  70.0 107.7
    angle_coeff 894  70.0 110.6
    angle_coeff 895  70.0 111.0
    angle_coeff 896  70.0 111.9
    angle_coeff 897  70.0 132.1
    angle_coeff 898  70.0 132.1
    angle_coeff 899  70.0 132.1
    angle_coeff 900  85.0 120.0
    angle_coeff 901  35.0 120.0
    angle_coeff 902  70.0 121.6
    angle_coeff 903  35.0 130.7
    angle_coeff 904  70.0 106.3
    angle_coeff 905  70.0 130.7
    angle_coeff 906  63.0 120.0
    angle_coeff 907  70.0 124.0
    angle_coeff 908  63.0 120.0
    angle_coeff 909  63.0 120.0
    angle_coeff 910  63.0 120.0
    angle_coeff 911  63.0 120.0
    angle_coeff 912  70.0 124.0
    angle_coeff 913  63.0 120.0
    angle_coeff 914  63.0 120.0
    angle_coeff 915  35.0 120.0
    angle_coeff 916  35.0 126.8
    angle_coeff 917  70.0 128.6
    angle_coeff 918  35.0 125.7
    angle_coeff 919  35.0 126.8
    angle_coeff 920  70.0 103.8
    angle_coeff 921  70.0 110.4
    angle_coeff 922  70.0 125.0
    angle_coeff 923  70.0 125.0
    angle_coeff 924  70.0 130.0
    angle_coeff 925  85.0 106.4
    angle_coeff 926  70.0 125.7
    angle_coeff 927  35.0 127.5
    angle_coeff 928  70.0 107.3
    angle_coeff 929  70.0 107.3
    angle_coeff 930  70.0 127.5
    angle_coeff 931  70.0 103.8
    angle_coeff 932  35.0 128.6
    angle_coeff 933  35.0 118.9
    angle_coeff 934  70.0 118.9
    angle_coeff 935  70.0 118.9
    angle_coeff 936  70.0 111.9
    angle_coeff 937  80.0 134.0
    angle_coeff 938  70.0 91.0
    angle_coeff 939  80.0 134.0
    angle_coeff 940  55.0 127.0
    angle_coeff 941  50.0 94.0
    angle_coeff 942  50.0 126.0
    angle_coeff 943  35.0 108.0
    angle_coeff 944  35.0 114.3
    angle_coeff 945  35.0 114.3
    angle_coeff 946  35.0 114.3
    angle_coeff 947  37.5 108.0
    angle_coeff 948  35.0 109.5
    angle_coeff 949  37.5 110.0
    angle_coeff 950  70.0 117.0
    angle_coeff 951  35.0 111.0
    angle_coeff 952  55.0 109.0
    angle_coeff 953  30.0 79.2
    angle_coeff 954  37.5 117.2
    angle_coeff 955  37.5 117.2
    angle_coeff 956  37.5 117.2
    angle_coeff 957  37.5 126.0
    angle_coeff 958  55.0 128.0
    angle_coeff 959  63.0 85.0
    angle_coeff 960  63.0 114.0
    angle_coeff 961  80.0 89.0
    angle_coeff 962  172.8 120.0
    angle_coeff 963  144.0 120.0
    angle_coeff 964  35.0 109.5
    angle_coeff 965  43.6 106.4
    angle_coeff 966  50.0 112.5
    angle_coeff 967  50.0 120.5
    angle_coeff 968  80.0 117.5
    angle_coeff 969  80.0 117.5
    angle_coeff 970  80.0 125.0
    angle_coeff 971  10.0 109.5
    angle_coeff 972  10.0 109.5
    angle_coeff 973  45.0 109.5
    angle_coeff 974  70.0 117.6
    angle_coeff 975  70.0 117.6
    angle_coeff 976  35.0 119.2
    angle_coeff 977  35.0 119.2
    angle_coeff 978  70.0 121.2
    angle_coeff 979  70.0 121.6
    angle_coeff 980  70.0 117.6
    angle_coeff 981  70.0 121.2
    angle_coeff 982  30.0 125.8
    angle_coeff 983  70.0 125.8
    angle_coeff 984  70.0 125.8
    angle_coeff 985  70.0 125.8
    angle_coeff 986  70.0 125.8
    angle_coeff 987  30.0 128.8
    angle_coeff 988  70.0 105.4
    angle_coeff 989  70.0 128.8
    angle_coeff 990  70.0 128.8
    angle_coeff 991  70.0 128.8
    angle_coeff 992  70.0 128.8
    angle_coeff 993  20.0 109.5
    angle_coeff 994  20.0 109.5
    angle_coeff 995  50.0 118.0
    angle_coeff 996  50.0 121.9
    angle_coeff 997  35.0 110.5
    angle_coeff 998  60.0 110.0
    angle_coeff 999  60.0 100.0
    angle_coeff 1000  60.0 110.0
    angle_coeff 1001  35.0 110.5
    angle_coeff 1002  35.0 109.5
    angle_coeff 1003  35.0 110.5
    angle_coeff 1004  35.0 109.5
    angle_coeff 1005  35.0 110.5
    angle_coeff 1006  35.0 110.5
    angle_coeff 1007  35.0 110.5
    angle_coeff 1008  50.0 112.0
    angle_coeff 1009  35.0 123.3
    angle_coeff 1010  35.0 120.0
    angle_coeff 1011  70.0 124.0
    angle_coeff 1012  35.0 120.0
    angle_coeff 1013  70.0 124.0
    angle_coeff 1014  70.0 124.0
    angle_coeff 1015  85.0 117.0
    angle_coeff 1016  160.0 180.0
    angle_coeff 1017  160.0 180.0
    dihedral_coeff 1  -2.5 1.25 3.1 0.0
    dihedral_coeff 2  -2.5 1.25 3.1 0.0
    dihedral_coeff 3  -2.0 0.7 3.0 0.0
    dihedral_coeff 4  -2.0 0.7 3.0 0.0
    dihedral_coeff 5  -3.4 1.25 3.1 0.0
    dihedral_coeff 6  -3.4 1.25 3.1 0.0
    dihedral_coeff 7  -3.4 1.25 3.1 0.0
    dihedral_coeff 8  -3.4 1.25 3.1 0.0
    dihedral_coeff 9  -2.0 0.5 3.25 0.0
    dihedral_coeff 10  -3.4 1.25 3.1 0.0
    dihedral_coeff 11  -2.0 0.5 3.25 0.0
    dihedral_coeff 12  -3.4 1.25 3.1 0.0
    dihedral_coeff 13  0.3 0.0 1.3 0.0
    dihedral_coeff 14  0.3 0.0 1.3 0.0
    dihedral_coeff 15  0.3 0.0 1.3 0.0
    dihedral_coeff 16  -2.5 1.25 3.1 0.0
    dihedral_coeff 17  -3.4 1.25 3.1 0.0
    dihedral_coeff 18  -3.4 1.25 3.1 0.0
    dihedral_coeff 19  -7.4 3.0 1.8 0.0
    dihedral_coeff 20  -8.4 3.0 1.8 0.0
    dihedral_coeff 21  1.6 3.2 0.0 0.0
    dihedral_coeff 22  0.0 0.5 0.0 0.0
    dihedral_coeff 23  0.0 0.0 0.0 0.0
    dihedral_coeff 24  0.0 0.0 0.0 0.0
    dihedral_coeff 25  0.7 -1.5 0.0 0.0
    dihedral_coeff 26  -0.5 0.2 0.0 0.0
    dihedral_coeff 27  0.8 -0.76 0.0 0.0
    dihedral_coeff 28  -0.9 0.3 0.0 0.0
    dihedral_coeff 29  0.0 0.0 0.3 0.0
    dihedral_coeff 30  3.0 5.5 0.0 0.0
    dihedral_coeff 31  0.0 5.0 0.0 0.0
    dihedral_coeff 32  1.5 5.5 0.0 0.0
    dihedral_coeff 33  -2.0 5.0 0.0 0.0
    dihedral_coeff 34  1.5 5.5 0.0 0.0
    dihedral_coeff 35  4.0 5.0 0.0 0.0
    dihedral_coeff 36  0.0 0.0 0.0 0.0
    dihedral_coeff 37  0.0 0.0 0.36 0.0
    dihedral_coeff 38  0.0 0.0 0.085 0.0
    dihedral_coeff 39  0.0 0.0 0.0 0.0
    dihedral_coeff 40  0.0 0.0 0.0 0.0
    dihedral_coeff 41  -0.65 0.0 0.0 0.0
    dihedral_coeff 42  0.0 0.82 0.0 0.0
    dihedral_coeff 43  0.0 0.0 0.0 0.0
    dihedral_coeff 44  0.0 0.0 0.0 0.0
    dihedral_coeff 45  0.0 0.546 0.0 0.0
    dihedral_coeff 46  0.0 1.412 0.0 0.0
    dihedral_coeff 47  5.26 0.82 0.0 0.0
    dihedral_coeff 48  0.0 0.0 0.0 0.0
    dihedral_coeff 49  1.454 -0.144 -0.775 0.0
    dihedral_coeff 50  0.0 0.0 0.275 0.0
    dihedral_coeff 51  0.0 0.0 -0.553 0.0
    dihedral_coeff 52  0.0 0.0 0.132 0.0
    dihedral_coeff 53  0.0 0.0 0.0 0.0
    dihedral_coeff 54  0.0 0.0 0.36 0.0
    dihedral_coeff 55  1.173 0.189 -1.2 0.0
    dihedral_coeff 56  0.65 0.0 0.0 0.0
    dihedral_coeff 57  1.816 1.222 1.581 0.0
    dihedral_coeff 58  0.0 0.0 0.0 0.0
    dihedral_coeff 59  0.0 0.0 0.0 0.0
    dihedral_coeff 60  0.0 0.0 0.36 0.0
    dihedral_coeff 61  0.0 0.0 0.275 0.0
    dihedral_coeff 62  0.0 0.82 0.0 0.0
    dihedral_coeff 63  0.0 0.82 0.0 0.0
    dihedral_coeff 64  0.0 0.0 0.0 0.0
    dihedral_coeff 65  0.0 0.0 0.0 0.0
    dihedral_coeff 66  0.0 0.0 0.36 0.0
    dihedral_coeff 67  0.0 0.0 0.0 0.0
    dihedral_coeff 68  0.0 5.124 0.0 0.0
    dihedral_coeff 69  0.0 5.0 0.0 0.0
    dihedral_coeff 70  4.669 5.124 0.0 0.0
    dihedral_coeff 71  1.5 5.0 0.0 0.0
    dihedral_coeff 72  -2.0 5.0 0.0 0.0
    dihedral_coeff 73  4.669 5.124 0.0 0.0
    dihedral_coeff 74  4.0 5.0 0.0 0.0
    dihedral_coeff 75  0.4 4.9 0.0 0.0
    dihedral_coeff 76  0.0 4.9 0.0 0.0
    dihedral_coeff 77  0.0 6.603 0.0 0.0
    dihedral_coeff 78  0.0 6.089 0.0 0.0
    dihedral_coeff 79  0.0 4.9 0.0 0.0
    dihedral_coeff 80  0.0 6.089 0.0 0.0
    dihedral_coeff 81  0.0 6.089 0.0 0.0
    dihedral_coeff 82  0.0 6.089 0.0 0.0
    dihedral_coeff 83  2.3 6.089 0.0 0.0
    dihedral_coeff 84  0.0 4.9 0.0 0.0
    dihedral_coeff 85  4.542 6.603 1.045 0.0
    dihedral_coeff 86  2.3 6.089 0.0 0.0
    dihedral_coeff 87  0.0 4.9 0.0 0.0
    dihedral_coeff 88  2.3 6.089 0.0 0.0
    dihedral_coeff 89  2.3 6.089 0.0 0.0
    dihedral_coeff 90  0.0 4.9 0.0 0.0
    dihedral_coeff 91  2.3 6.089 0.0 0.0
    dihedral_coeff 92  4.6 0.0 0.0 0.0
    dihedral_coeff 93  0.0 4.9 0.0 0.0
    dihedral_coeff 94  2.3 6.089 0.0 0.0
    dihedral_coeff 95  0.0 4.9 0.0 0.0
    dihedral_coeff 96  0.0 4.9 0.0 0.0
    dihedral_coeff 97  0.0 4.9 0.0 0.0
    dihedral_coeff 98  2.3 6.089 0.0 0.0
    dihedral_coeff 99  2.3 6.089 0.0 0.0
    dihedral_coeff 100  2.3 6.089 0.0 0.0
    dihedral_coeff 101  2.3 6.089 0.0 0.0
    dihedral_coeff 102  2.3 6.089 0.0 0.0
    dihedral_coeff 103  2.3 6.089 0.0 0.0
    dihedral_coeff 104  0.0 4.9 0.0 0.0
    dihedral_coeff 105  2.3 6.089 0.0 0.0
    dihedral_coeff 106  2.3 6.089 0.0 0.0
    dihedral_coeff 107  2.3 6.089 0.0 0.0
    dihedral_coeff 108  0.9 0.23 -0.505 0.0
    dihedral_coeff 109  0.0 0.0 0.0 0.0
    dihedral_coeff 110  2.5 6.0 0.0 0.0
    dihedral_coeff 111  3.2 -3.0 0.0 0.0
    dihedral_coeff 112  0.0 0.0 0.0 0.0
    dihedral_coeff 113  2.0 0.0 0.0 0.0
    dihedral_coeff 114  0.0 0.0 0.0 0.0
    dihedral_coeff 115  2.0 0.0 0.0 0.0
    dihedral_coeff 116  0.0 2.1 0.0 0.0
    dihedral_coeff 117  0.0 2.1 0.0 0.0
    dihedral_coeff 118  0.0 0.2 0.0 0.0
    dihedral_coeff 119  0.0 2.1 0.0 0.0
    dihedral_coeff 120  0.0 1.1 0.0 0.0
    dihedral_coeff 121  0.0 0.2 0.0 0.0
    dihedral_coeff 122  0.9 0.23 -0.505 0.0
    dihedral_coeff 123  2.5 6.0 0.0 0.0
    dihedral_coeff 124  3.2 -3.0 0.0 0.0
    dihedral_coeff 125  0.8 -3.0 0.0 0.0
    dihedral_coeff 126  0.0 14.0 0.0 0.0
    dihedral_coeff 127  0.0 14.0 0.0 0.0
    dihedral_coeff 128  0.0 14.0 0.0 0.0
    dihedral_coeff 129  0.0 14.0 0.0 0.0
    dihedral_coeff 130  0.0 7.0 0.0 0.0
    dihedral_coeff 131  0.0 7.0 0.0 0.0
    dihedral_coeff 132  0.0 0.0 0.0 0.0
    dihedral_coeff 133  2.0 1.0 0.0 0.0
    dihedral_coeff 134  0.0 1.0 0.0 0.0
    dihedral_coeff 135  -2.0 1.0 0.0 0.0
    dihedral_coeff 136  0.0 1.0 0.0 0.0
    dihedral_coeff 137  -0.75 1.5 0.0 0.0
    dihedral_coeff 138  0.75 1.5 0.0 0.0
    dihedral_coeff 139  0.0 1.5 0.0 0.0
    dihedral_coeff 140  0.0 1.5 0.0 0.0
    dihedral_coeff 141  0.0 2.17 0.0 0.0
    dihedral_coeff 142  0.0 7.25 0.0 0.0
    dihedral_coeff 143  0.0 2.1 0.0 0.0
    dihedral_coeff 144  0.0 2.1 0.0 0.0
    dihedral_coeff 145  0.0 1.1 0.0 0.0
    dihedral_coeff 146  0.0 1.1 0.0 0.0
    dihedral_coeff 147  0.0 4.9 0.0 0.0
    dihedral_coeff 148  0.0 4.9 0.0 0.0
    dihedral_coeff 149  2.5 6.0 0.0 0.0
    dihedral_coeff 150  3.2 -3.0 0.0 0.0
    dihedral_coeff 151  0.0 0.0 0.0 0.0
    dihedral_coeff 152  0.3 0.0 0.5 0.0
    dihedral_coeff 153  0.3 0.0 0.5 0.0
    dihedral_coeff 154  0.0 0.0 0.2 0.0
    dihedral_coeff 155  0.0 0.0 0.2 0.0
    dihedral_coeff 156  -0.356 -0.174 0.492 0.0
    dihedral_coeff 157  0.0 0.0 0.352 0.0
    dihedral_coeff 158  -0.9 0.0 0.0 0.0
    dihedral_coeff 159  -0.9 0.0 0.0 0.0
    dihedral_coeff 160  -0.9 0.0 0.0 0.0
    dihedral_coeff 161  0.0 0.0 0.3 0.0
    dihedral_coeff 162  0.0 0.0 0.3 0.0
    dihedral_coeff 163  5.519 -6.7 0.581 0.0
    dihedral_coeff 164  2.722 -5.154 0.0 0.0
    dihedral_coeff 165  0.0 1.682 0.0 0.0
    dihedral_coeff 166  0.0 1.682 0.0 0.0
    dihedral_coeff 167  -1.257 -1.806 0.003 0.0
    dihedral_coeff 168  3.0 3.0 0.0 0.0
    dihedral_coeff 169  0.0 0.0 0.0 0.0
    dihedral_coeff 170  0.0 0.0 0.0 0.0
    dihedral_coeff 171  -0.75 0.0 0.0 0.0
    dihedral_coeff 172  0.75 0.0 0.0 0.0
    dihedral_coeff 173  2.0 0.0 0.0 0.0
    dihedral_coeff 174  -4.344 -1.714 0.0 0.0
    dihedral_coeff 175  1.711 -0.5 0.663 0.0
    dihedral_coeff 176  1.428 0.086 0.029 0.0
    dihedral_coeff 177  -2.5 0.0 0.25 0.0
    dihedral_coeff 178  0.0 0.0 0.54 0.0
    dihedral_coeff 179  0.3 -0.4 0.4 0.0
    dihedral_coeff 180  0.0 0.0 0.4 0.0
    dihedral_coeff 181  -0.55 0.0 1.0 0.0
    dihedral_coeff 182  -6.18 0.0 0.0 0.0
    dihedral_coeff 183  -2.06 -0.313 0.315 0.0
    dihedral_coeff 184  -4.344 -1.714 0.0 0.0
    dihedral_coeff 185  -4.344 -1.714 0.0 0.0
    dihedral_coeff 186  -9.0 2.0 0.8 0.0
    dihedral_coeff 187  0.0 0.0 -0.1 0.0
    dihedral_coeff 188  -1.697 -0.456 0.585 0.0
    dihedral_coeff 189  -1.697 -0.456 0.585 0.0
    dihedral_coeff 190  9.508 0.0 0.0 0.0
    dihedral_coeff 191  -1.552 0.0 0.0 0.0
    dihedral_coeff 192  4.319 0.0 0.0 0.0
    dihedral_coeff 193  8.0 0.0 0.0 0.0
    dihedral_coeff 194  6.28 -1.467 2.03 0.0
    dihedral_coeff 195  0.0 0.0 0.468 0.0
    dihedral_coeff 196  1.3 -0.05 0.2 0.0
    dihedral_coeff 197  1.262 -0.198 0.465 0.0
    dihedral_coeff 198  2.619 -0.62 0.258 0.0
    dihedral_coeff 199  0.0 -0.65 0.0 0.0
    dihedral_coeff 200  0.0 0.0 0.4 0.0
    dihedral_coeff 201  2.392 -0.674 0.55 0.0
    dihedral_coeff 202  0.845 -0.962 0.713 0.0
    dihedral_coeff 203  0.0 0.0 0.3 0.0
    dihedral_coeff 204  1.3 -0.05 0.2 0.0
    dihedral_coeff 205  2.732 -0.229 0.485 0.0
    dihedral_coeff 206  0.0 0.0 0.4 0.0
    dihedral_coeff 207  0.0 0.0 0.4 0.0
    dihedral_coeff 208  1.262 -0.198 0.465 0.0
    dihedral_coeff 209  1.964 0.0 0.659 0.0
    dihedral_coeff 210  0.0 0.0 0.0 0.0
    dihedral_coeff 211  0.0 0.0 0.452 0.0
    dihedral_coeff 212  0.0 0.0 0.452 0.0
    dihedral_coeff 213  0.0 0.0 0.366 0.0
    dihedral_coeff 214  -0.55 0.0 0.0 0.0
    dihedral_coeff 215  0.0 0.0 0.468 0.0
    dihedral_coeff 216  -0.25 0.0 0.0 0.0
    dihedral_coeff 217  2.0 0.0 0.0 0.0
    dihedral_coeff 218  0.0 0.0 0.4 0.0
    dihedral_coeff 219  11.035 -0.968 0.27 0.0
    dihedral_coeff 220  -1.013 -0.709 0.473 0.0
    dihedral_coeff 221  -0.8 0.0 0.0 0.0
    dihedral_coeff 222  0.0 0.0 0.464 0.0
    dihedral_coeff 223  0.845 -0.962 0.713 0.0
    dihedral_coeff 224  0.845 -0.962 0.713 0.0
    dihedral_coeff 225  0.0 0.0 0.3 0.0
    dihedral_coeff 226  0.0 0.0 0.366 0.0
    dihedral_coeff 227  0.0 0.0 0.462 0.0
    dihedral_coeff 228  0.0 0.0 0.3 0.0
    dihedral_coeff 229  0.0 0.0 0.384 0.0
    dihedral_coeff 230  0.0 0.0 -0.582 0.0
    dihedral_coeff 231  0.0 0.0 0.462 0.0
    dihedral_coeff 232  0.0 0.0 0.462 0.0
    dihedral_coeff 233  0.0 0.0 0.4 0.0
    dihedral_coeff 234  0.0 0.0 0.4 0.0
    dihedral_coeff 235  0.0 0.0 0.452 0.0
    dihedral_coeff 236  0.0 0.0 0.462 0.0
    dihedral_coeff 237  0.0 0.0 0.462 0.0
    dihedral_coeff 238  0.0 0.0 0.462 0.0
    dihedral_coeff 239  0.0 0.0 0.462 0.0
    dihedral_coeff 240  0.0 0.0 0.462 0.0
    dihedral_coeff 241  0.0 0.0 0.462 0.0
    dihedral_coeff 242  0.0 0.0 -0.225 0.0
    dihedral_coeff 243  0.0 0.0 0.3 0.0
    dihedral_coeff 244  0.0 0.0 0.464 0.0
    dihedral_coeff 245  0.0 0.0 0.45 0.0
    dihedral_coeff 246  0.0 0.0 0.366 0.0
    dihedral_coeff 247  1.0 0.0 0.0 0.0
    dihedral_coeff 248  5.2 -0.5 0.0 0.0
    dihedral_coeff 249  -0.759 -0.282 0.68 0.0
    dihedral_coeff 250  0.0 0.0 0.48 0.0
    dihedral_coeff 251  0.925 -0.576 0.677 0.0
    dihedral_coeff 252  1.941 -0.836 0.935 0.0
    dihedral_coeff 253  0.0 0.0 0.647 0.0
    dihedral_coeff 254  0.0 0.0 0.558 0.0
    dihedral_coeff 255  0.0 0.0 0.647 0.0
    dihedral_coeff 256  0.0 0.0 0.0 0.0
    dihedral_coeff 257  0.0 0.0 0.0 0.0
    dihedral_coeff 258  0.0 0.0 0.0 0.0
    dihedral_coeff 259  0.0 0.0 0.0 0.0
    dihedral_coeff 260  0.0 0.0 0.0 0.0
    dihedral_coeff 261  0.0 0.0 0.0 0.0
    dihedral_coeff 262  -0.521 -2.018 1.996 0.0
    dihedral_coeff 263  -0.5 -1.5 1.0 0.0
    dihedral_coeff 264  -0.5 -1.5 1.0 0.0
    dihedral_coeff 265  -1.22 -0.126 0.422 0.0
    dihedral_coeff 266  0.65 -0.25 0.67 0.0
    dihedral_coeff 267  -1.42 -0.62 0.1 0.0
    dihedral_coeff 268  0.0 0.0 0.76 0.0
    dihedral_coeff 269  0.0 0.0 0.198 0.0
    dihedral_coeff 270  0.0 0.0 0.76 0.0
    dihedral_coeff 271  0.0 0.0 0.76 0.0
    dihedral_coeff 272  0.0 0.0 0.76 0.0
    dihedral_coeff 273  0.0 0.0 0.3 0.0
    dihedral_coeff 274  0.0 0.0 0.0 0.0
    dihedral_coeff 275  -2.365 0.912 -0.85 0.0
    dihedral_coeff 276  -1.737 1.251 -3.501 0.0
    dihedral_coeff 277  0.0 0.0 0.0 0.0
    dihedral_coeff 278  0.0 0.462 0.0 0.0
    dihedral_coeff 279  4.753 -0.734 0.0 0.0
    dihedral_coeff 280  0.0 0.0 0.0 0.0
    dihedral_coeff 281  0.0 0.0 0.0 0.0
    dihedral_coeff 282  2.929 -2.533 0.497 0.0
    dihedral_coeff 283  2.3 6.089 0.0 0.0
    dihedral_coeff 284  0.0 0.0 0.0 0.0
    dihedral_coeff 285  0.0 0.0 0.0 0.0
    dihedral_coeff 286  0.0 0.0 0.0 0.0
    dihedral_coeff 287  0.0 0.0 0.0 0.0
    dihedral_coeff 288  1.362 -1.457 0.149 0.0
    dihedral_coeff 289  0.0 0.0 0.0 0.0
    dihedral_coeff 290  0.416 -0.128 0.695 0.0
    dihedral_coeff 291  -0.19 -0.417 0.418 0.0
    dihedral_coeff 292  0.0 0.0 0.56 0.0
    dihedral_coeff 293  0.0 0.0 0.4 0.0
    dihedral_coeff 294  0.0 0.0 0.56 0.0
    dihedral_coeff 295  1.711 -0.5 0.663 0.0
    dihedral_coeff 296  0.0 0.0 0.468 0.0
    dihedral_coeff 297  0.5 0.0 0.0 0.0
    dihedral_coeff 298  0.5 0.0 0.0 0.0
    dihedral_coeff 299  0.5 0.0 0.0 0.0
    dihedral_coeff 300  2.817 -0.169 0.543 0.0
    dihedral_coeff 301  0.346 0.405 -0.904 0.0
    dihedral_coeff 302  0.346 0.405 -0.904 0.0
    dihedral_coeff 303  0.0 0.0 0.3 0.0
    dihedral_coeff 304  0.0 0.0 0.318 0.0
    dihedral_coeff 305  0.0 0.0 -0.372 0.0
    dihedral_coeff 306  0.0 0.0 -0.372 0.0
    dihedral_coeff 307  0.0 0.0 -0.25 0.0
    dihedral_coeff 308  0.0 -8.0 0.0 0.0
    dihedral_coeff 309  0.0 -8.0 0.0 0.0
    dihedral_coeff 310  0.0 0.0 0.0 0.0
    dihedral_coeff 311  0.0 0.45 0.0 0.0
    dihedral_coeff 312  0.0 0.0 0.0 0.0
    dihedral_coeff 313  -0.5 0.5 -0.5 0.0
    dihedral_coeff 314  0.0 -0.4 0.0 0.0
    dihedral_coeff 315  0.0 0.0 0.0 0.0
    dihedral_coeff 316  0.0 0.0 0.0 0.0
    dihedral_coeff 317  0.0 0.0 0.4 0.0
    dihedral_coeff 318  0.5 0.0 0.0 0.0
    dihedral_coeff 319  0.346 0.405 -0.904 0.0
    dihedral_coeff 320  0.0 0.0 -0.372 0.0
    dihedral_coeff 321  0.0 0.0 -0.372 0.0
    dihedral_coeff 322  0.0 0.0 -0.372 0.0
    dihedral_coeff 323  1.711 -0.5 0.663 0.0
    dihedral_coeff 324  0.0 0.0 0.3 0.0
    dihedral_coeff 325  0.0 0.0 0.468 0.0
    dihedral_coeff 326  1.438 -0.124 0.264 0.0
    dihedral_coeff 327  0.0 0.0 0.347 0.0
    dihedral_coeff 328  0.0 0.0 0.302 0.0
    dihedral_coeff 329  0.0 0.0 0.261 0.0
    dihedral_coeff 330  0.0 0.0 0.462 0.0
    dihedral_coeff 331  0.0 0.0 0.3 0.0
    dihedral_coeff 332  -0.19 -0.417 0.418 0.0
    dihedral_coeff 333  1.829 0.243 -0.498 0.0
    dihedral_coeff 334  -0.19 -0.417 0.418 0.0
    dihedral_coeff 335  0.0 0.0 0.0 0.0
    dihedral_coeff 336  0.0 0.0 0.0 0.0
    dihedral_coeff 337  0.0 0.0 0.177 0.0
    dihedral_coeff 338  0.0 0.0 0.0 0.0
    dihedral_coeff 339  0.0 0.0 0.0 0.0
    dihedral_coeff 340  1.0 -0.35 0.0 0.0
    dihedral_coeff 341  2.756 -0.872 -3.68 0.0
    dihedral_coeff 342  -1.0 -0.35 0.0 0.0
    dihedral_coeff 343  1.5 -1.5 0.0 0.0
    dihedral_coeff 344  -1.5 -1.5 0.0 0.0
    dihedral_coeff 345  -1.5 -1.5 0.0 0.0
    dihedral_coeff 346  0.0 0.0 0.0 0.0
    dihedral_coeff 347  0.0 0.5 -0.5 0.0
    dihedral_coeff 348  0.0 0.0 0.0 0.0
    dihedral_coeff 349  0.0 0.0 0.0 0.0
    dihedral_coeff 350  0.0 0.0 0.0 0.0
    dihedral_coeff 351  0.0 0.0 0.25 0.0
    dihedral_coeff 352  0.0 0.0 0.25 0.0
    dihedral_coeff 353  2.25 0.0 0.0 0.0
    dihedral_coeff 354  0.0 0.0 0.0 0.0
    dihedral_coeff 355  0.0 0.0 0.0 0.0
    dihedral_coeff 356  0.0 0.0 0.0 0.0
    dihedral_coeff 357  0.0 0.0 0.0 0.0
    dihedral_coeff 358  0.0 0.0 0.0 0.0
    dihedral_coeff 359  0.0 0.0 0.35 0.0
    dihedral_coeff 360  0.0 0.0 0.35 0.0
    dihedral_coeff 361  0.0 0.0 0.35 0.0
    dihedral_coeff 362  0.0 0.0 0.35 0.0
    dihedral_coeff 363  0.0 0.0 0.0 0.0
    dihedral_coeff 364  0.0 0.0 0.0 0.0
    dihedral_coeff 365  -0.714 0.0 0.0 0.0
    dihedral_coeff 366  0.0 0.0 0.0 0.0
    dihedral_coeff 367  0.0 0.0 0.0 0.0
    dihedral_coeff 368  0.0 0.0 -0.48 0.0
    dihedral_coeff 369  0.0 0.0 0.0 0.0
    dihedral_coeff 370  0.0 0.0 0.0 0.0
    dihedral_coeff 371  0.0 0.0 0.0 0.0
    dihedral_coeff 372  0.0 0.0 0.0 0.0
    dihedral_coeff 373  0.0 0.45 0.0 0.0
    dihedral_coeff 374  0.0 0.0 0.0 0.0
    dihedral_coeff 375  1.7 -0.6 0.0 0.0
    dihedral_coeff 376  0.0 -0.4 0.0 0.0
    dihedral_coeff 377  0.0 0.0 0.0 0.0
    dihedral_coeff 378  0.0 0.45 0.0 0.0
    dihedral_coeff 379  0.0 0.0 0.0 0.0
    dihedral_coeff 380  0.0 -0.4 0.0 0.0
    dihedral_coeff 381  0.0 0.0 0.0 0.0
    dihedral_coeff 382  0.0 0.0 0.0 0.0
    dihedral_coeff 383  0.0 0.0 0.0 0.0
    dihedral_coeff 384  0.0 0.0 0.0 0.0
    dihedral_coeff 385  0.0 0.0 0.0 0.0
    dihedral_coeff 386  0.0 0.0 0.3 0.0
    dihedral_coeff 387  0.0 -1.0 0.0 0.0
    dihedral_coeff 388  0.0 -1.0 0.0 0.0
    dihedral_coeff 389  0.0 0.4 0.0 0.0
    dihedral_coeff 390  0.0 0.0 0.0 0.0
    dihedral_coeff 391  1.0 -0.5 0.5 0.0
    dihedral_coeff 392  0.0 0.0 0.3 0.0
    dihedral_coeff 393  0.0 0.0 0.0 0.0
    dihedral_coeff 394  1.0 -0.35 0.0 0.0
    dihedral_coeff 395  -1.0 -0.35 0.0 0.0
    dihedral_coeff 396  -1.0 -0.35 0.0 0.0
    dihedral_coeff 397  1.5 -1.5 0.0 0.0
    dihedral_coeff 398  3.132 -1.491 2.744 0.0
    dihedral_coeff 399  -1.5 -1.5 0.0 0.0
    dihedral_coeff 400  -1.737 1.251 -3.501 0.0
    dihedral_coeff 401  -1.396 -0.427 0.0 0.0
    dihedral_coeff 402  4.753 -0.734 0.0 0.0
    dihedral_coeff 403  0.0 0.0 -0.139 0.0
    dihedral_coeff 404  0.0 0.0 0.0 0.0
    dihedral_coeff 405  0.0 0.0 0.0 0.0
    dihedral_coeff 406  1.0 0.0 0.0 0.0
    dihedral_coeff 407  0.0 0.0 0.26 0.0
    dihedral_coeff 408  0.0 0.0 0.18 0.0
    dihedral_coeff 409  0.0 0.0 0.0 0.0
    dihedral_coeff 410  0.0 0.0 0.18 0.0
    dihedral_coeff 411  0.346 0.405 -0.904 0.0
    dihedral_coeff 412  0.0 0.0 0.3 0.0
    dihedral_coeff 413  0.0 0.0 0.318 0.0
    dihedral_coeff 414  0.0 0.0 -0.372 0.0
    dihedral_coeff 415  0.0 1.1 0.0 0.0
    dihedral_coeff 416  0.0 1.1 0.0 0.0
    dihedral_coeff 417  0.0 -7.414 1.705 0.0
    dihedral_coeff 418  0.0 0.6 0.0 0.0
    dihedral_coeff 419  1.6 5.1 0.0 0.0
    dihedral_coeff 420  0.0 4.8 0.0 0.0
    dihedral_coeff 421  0.0 7.25 0.0 0.0
    dihedral_coeff 422  0.0 7.25 0.0 0.0
    dihedral_coeff 423  0.0 7.25 0.0 0.0
    dihedral_coeff 424  0.0 7.25 0.0 0.0
    dihedral_coeff 425  0.0 7.25 0.0 0.0
    dihedral_coeff 426  0.0 0.0 0.0 0.0
    dihedral_coeff 427  0.0 0.0 0.0 0.0
    dihedral_coeff 428  0.0 0.0 0.0 0.0
    dihedral_coeff 429  0.0 0.0 0.0 0.0
    dihedral_coeff 430  0.0 0.0 0.0 0.0
    dihedral_coeff 431  0.0 0.0 0.0 0.0
    dihedral_coeff 432  0.0 0.0 0.0 0.0
    dihedral_coeff 433  0.0 0.0 0.0 0.0
    dihedral_coeff 434  0.0 0.0 0.0 0.0
    dihedral_coeff 435  0.0 0.0 0.0 0.0
    dihedral_coeff 436  0.0 0.0 0.0 0.0
    dihedral_coeff 437  0.0 0.0 0.0 0.0
    dihedral_coeff 438  0.0 0.0 0.0 0.0
    dihedral_coeff 439  0.0 0.0 0.0 0.0
    dihedral_coeff 440  0.0 0.0 0.0 0.0
    dihedral_coeff 441  0.0 0.0 0.3 0.0
    dihedral_coeff 442  0.0 0.0 0.3 0.0
    dihedral_coeff 443  0.65 -0.25 0.67 0.0
    dihedral_coeff 444  0.0 0.0 0.76 0.0
    dihedral_coeff 445  -3.5 3.0 0.0 0.0
    dihedral_coeff 446  -3.5 3.0 0.0 0.0
    dihedral_coeff 447  0.0 2.5 0.0 0.0
    dihedral_coeff 448  0.0 3.0 0.0 0.0
    dihedral_coeff 449  0.4 5.5 0.0 0.0
    dihedral_coeff 450  0.0 2.99 0.0 0.0
    dihedral_coeff 451  -0.375 -1.358 0.004 0.0
    dihedral_coeff 452  0.65 -0.25 0.67 0.0
    dihedral_coeff 453  -0.375 -1.358 0.004 0.0
    dihedral_coeff 454  0.0 0.0 0.76 0.0
    dihedral_coeff 455  3.0 3.0 0.0 0.0
    dihedral_coeff 456  0.0 5.2 0.0 0.0
    dihedral_coeff 457  0.0 0.0 0.562 0.0
    dihedral_coeff 458  3.5 -3.3 1.5 0.0
    dihedral_coeff 459  0.0 0.0 0.0 0.0
    dihedral_coeff 460  0.0 0.0 0.0 0.0
    dihedral_coeff 461  0.0 7.25 0.0 0.0
    dihedral_coeff 462  0.0 7.25 0.0 0.0
    dihedral_coeff 463  0.0 7.25 0.0 0.0
    dihedral_coeff 464  0.0 7.25 0.0 0.0
    dihedral_coeff 465  0.0 0.0 0.0 0.0
    dihedral_coeff 466  0.0 0.0 0.0 0.0
    dihedral_coeff 467  0.0 2.1 0.0 0.0
    dihedral_coeff 468  0.0 2.1 0.0 0.0
    dihedral_coeff 469  0.0 2.1 0.0 0.0
    dihedral_coeff 470  0.0 2.1 0.0 0.0
    dihedral_coeff 471  0.0 2.1 0.0 0.0
    dihedral_coeff 472  0.0 2.1 0.0 0.0
    dihedral_coeff 473  0.0 2.1 0.0 0.0
    dihedral_coeff 474  0.0 7.25 0.0 0.0
    dihedral_coeff 475  0.0 7.25 0.0 0.0
    dihedral_coeff 476  0.0 7.25 0.0 0.0
    dihedral_coeff 477  0.0 7.25 0.0 0.0
    dihedral_coeff 478  0.0 0.0 0.0 0.0
    dihedral_coeff 479  2.074 -2.966 2.473 0.0
    dihedral_coeff 480  1.671 -4.901 0.669 0.0
    dihedral_coeff 481  0.0 2.1 0.0 0.0
    dihedral_coeff 482  0.0 2.1 0.0 0.0
    dihedral_coeff 483  0.0 2.1 0.0 0.0
    dihedral_coeff 484  0.0 2.1 0.0 0.0
    dihedral_coeff 485  0.0 2.1 0.0 0.0
    dihedral_coeff 486  0.0 2.1 0.0 0.0
    dihedral_coeff 487  0.0 2.1 0.0 0.0
    dihedral_coeff 488  0.0 2.17 0.0 0.0
    dihedral_coeff 489  0.0 3.0 0.0 0.0
    dihedral_coeff 490  0.0 2.1 0.0 0.0
    dihedral_coeff 491  0.0 2.1 0.0 0.0
    dihedral_coeff 492  0.0 2.1 0.0 0.0
    dihedral_coeff 493  0.0 2.1 0.0 0.0
    dihedral_coeff 494  0.0 2.17 0.0 0.0
    dihedral_coeff 495  0.0 2.17 0.0 0.0
    dihedral_coeff 496  0.0 7.25 0.0 0.0
    dihedral_coeff 497  0.0 2.17 0.0 0.0
    dihedral_coeff 498  0.0 2.17 0.0 0.0
    dihedral_coeff 499  0.0 2.17 0.0 0.0
    dihedral_coeff 500  0.0 2.17 0.0 0.0
    dihedral_coeff 501  0.0 0.0 0.0 0.0
    dihedral_coeff 502  -1.396 -0.427 0.0 0.0
    dihedral_coeff 503  -1.396 -0.427 0.0 0.0
    dihedral_coeff 504  0.0 0.0 0.0 0.0
    dihedral_coeff 505  0.0 0.0 0.0 0.0
    dihedral_coeff 506  0.0 0.0 0.0 0.0
    dihedral_coeff 507  0.0 0.0 0.0 0.0
    dihedral_coeff 508  0.0 0.0 0.3 0.0
    dihedral_coeff 509  0.0 0.0 0.3 0.0
    dihedral_coeff 510  0.0 0.0 0.3 0.0
    dihedral_coeff 511  -7.582 3.431 3.198 0.0
    dihedral_coeff 512  0.0 2.03 0.0 0.0
    dihedral_coeff 513  0.0 2.1 0.0 0.0
    dihedral_coeff 514  0.0 2.1 0.0 0.0
    dihedral_coeff 515  0.0 2.1 0.0 0.0
    dihedral_coeff 516  0.0 2.1 0.0 0.0
    dihedral_coeff 517  0.0 2.1 0.0 0.0
    dihedral_coeff 518  0.0 2.1 0.0 0.0
    dihedral_coeff 519  0.0 2.1 0.0 0.0
    dihedral_coeff 520  0.0 -8.0 0.0 0.0
    dihedral_coeff 521  0.0 -8.0 0.0 0.0
    dihedral_coeff 522  0.0 14.0 0.0 0.0
    dihedral_coeff 523  0.0 14.0 0.0 0.0
    dihedral_coeff 524  0.0 14.0 0.0 0.0
    dihedral_coeff 525  0.0 14.0 0.0 0.0
    dihedral_coeff 526  0.0 14.0 0.0 0.0
    dihedral_coeff 527  0.0 14.0 0.0 0.0
    dihedral_coeff 528  0.0 14.0 0.0 0.0
    dihedral_coeff 529  0.0 14.0 0.0 0.0
    dihedral_coeff 530  0.0 14.0 0.0 0.0
    dihedral_coeff 531  0.0 14.0 0.0 0.0
    dihedral_coeff 532  0.0 14.0 0.0 0.0
    dihedral_coeff 533  0.0 14.0 0.0 0.0
    dihedral_coeff 534  -1.6 14.0 0.0 0.0
    dihedral_coeff 535  0.0 14.0 0.0 0.0
    dihedral_coeff 536  0.0 14.0 0.0 0.0
    dihedral_coeff 537  0.0 14.0 0.0 0.0
    dihedral_coeff 538  0.205 -0.531 0.0 0.0
    dihedral_coeff 539  0.0 0.0 -0.372 0.0
    dihedral_coeff 540  0.0 0.0 -0.372 0.0
    dihedral_coeff 541  1.241 3.353 -0.286 0.0
    dihedral_coeff 542  0.0 14.0 0.0 0.0
    dihedral_coeff 543  0.0 14.0 0.0 0.0
    dihedral_coeff 544  0.0 14.0 0.0 0.0
    dihedral_coeff 545  0.0 14.0 0.0 0.0
    dihedral_coeff 546  0.0 14.0 0.0 0.0
    dihedral_coeff 547  0.0 14.0 0.0 0.0
    dihedral_coeff 548  0.0 14.0 0.0 0.0
    dihedral_coeff 549  0.0 14.0 0.0 0.0
    dihedral_coeff 550  0.0 14.0 0.0 0.0
    dihedral_coeff 551  0.0 14.0 0.0 0.0
    dihedral_coeff 552  0.0 14.0 0.0 0.0
    dihedral_coeff 553  0.0 2.17 0.0 0.0
    dihedral_coeff 554  0.0 2.17 0.0 0.0
    dihedral_coeff 555  0.0 7.25 0.0 0.0
    dihedral_coeff 556  0.0 7.25 0.0 0.0
    dihedral_coeff 557  0.0 7.25 0.0 0.0
    dihedral_coeff 558  0.0 2.17 0.0 0.0
    dihedral_coeff 559  0.0 2.17 0.0 0.0
    dihedral_coeff 560  0.0 0.0 0.0 0.0
    dihedral_coeff 561  0.0 0.0 0.0 0.0
    dihedral_coeff 562  0.0 7.25 0.0 0.0
    dihedral_coeff 563  0.0 7.25 0.0 0.0
    dihedral_coeff 564  0.0 7.25 0.0 0.0
    dihedral_coeff 565  0.0 7.25 0.0 0.0
    dihedral_coeff 566  0.0 7.25 0.0 0.0
    dihedral_coeff 567  0.0 7.25 0.0 0.0
    dihedral_coeff 568  0.0 7.25 0.0 0.0
    dihedral_coeff 569  0.0 7.25 0.0 0.0
    dihedral_coeff 570  0.0 7.25 0.0 0.0
    dihedral_coeff 571  0.0 7.25 0.0 0.0
    dihedral_coeff 572  0.0 7.25 0.0 0.0
    dihedral_coeff 573  0.0 7.25 0.0 0.0
    dihedral_coeff 574  0.0 7.25 0.0 0.0
    dihedral_coeff 575  0.0 7.25 0.0 0.0
    dihedral_coeff 576  0.0 7.25 0.0 0.0
    dihedral_coeff 577  0.0 7.25 0.0 0.0
    dihedral_coeff 578  0.0 7.25 0.0 0.0
    dihedral_coeff 579  0.0 1.62 0.0 -0.44
    dihedral_coeff 580  0.0 7.25 0.0 0.0
    dihedral_coeff 581  0.0 7.25 0.0 0.0
    dihedral_coeff 582  0.0 7.25 0.0 0.0
    dihedral_coeff 583  0.0 7.25 0.0 0.0
    dihedral_coeff 584  0.0 7.25 0.0 0.0
    dihedral_coeff 585  0.0 7.25 0.0 0.0
    dihedral_coeff 586  0.0 7.25 0.0 0.0
    dihedral_coeff 587  0.0 7.25 0.0 0.0
    dihedral_coeff 588  0.0 7.25 0.0 0.0
    dihedral_coeff 589  0.0 7.25 0.0 0.0
    dihedral_coeff 590  0.0 7.25 0.0 0.0
    dihedral_coeff 591  0.0 7.25 0.0 0.0
    dihedral_coeff 592  0.0 7.25 0.0 0.0
    dihedral_coeff 593  0.0 0.0 -0.372 0.0
    dihedral_coeff 594  1.241 3.353 -0.286 0.0
    dihedral_coeff 595  0.0 0.0 -0.372 0.0
    dihedral_coeff 596  1.241 3.353 -0.286 0.0
    dihedral_coeff 597  0.0 0.0 0.0 0.0
    dihedral_coeff 598  0.0 0.0 0.0 0.0
    dihedral_coeff 599  0.0 2.03 0.0 0.0
    dihedral_coeff 600  0.0 3.9 0.0 0.0
    dihedral_coeff 601  0.0 7.936 0.0 0.0
    dihedral_coeff 602  0.0 3.9 0.0 0.0
    dihedral_coeff 603  0.0 2.03 0.0 0.0
    dihedral_coeff 604  0.0 7.25 0.0 0.0
    dihedral_coeff 605  0.0 7.25 0.0 0.0
    dihedral_coeff 606  0.0 7.25 0.0 0.0
    dihedral_coeff 607  0.0 7.0 0.0 0.0
    dihedral_coeff 608  0.0 0.0 0.0 0.0
    dihedral_coeff 609  0.0 -0.9 0.0 0.0
    dihedral_coeff 610  1.656 -0.768 -0.117 0.0
    dihedral_coeff 611  0.0 7.25 0.0 0.0
    dihedral_coeff 612  0.0 7.25 0.0 0.0
    dihedral_coeff 613  0.0 7.25 0.0 0.0
    dihedral_coeff 614  0.0 7.25 0.0 0.0
    dihedral_coeff 615  0.0 7.25 0.0 0.0
    dihedral_coeff 616  0.0 7.25 0.0 0.0
    dihedral_coeff 617  0.0 7.25 0.0 0.0
    dihedral_coeff 618  0.0 7.25 0.0 0.0
    dihedral_coeff 619  0.0 7.25 0.0 0.0
    dihedral_coeff 620  0.0 3.651 0.0 0.0
    dihedral_coeff 621  0.0 1.15 0.0 0.0
    dihedral_coeff 622  0.205 -0.531 0.0 0.0
    dihedral_coeff 623  0.0 0.0 -0.372 0.0
    dihedral_coeff 624  1.241 3.353 -0.286 0.0
    dihedral_coeff 625  0.0 7.25 0.0 0.0
    dihedral_coeff 626  0.0 7.25 0.0 0.0
    dihedral_coeff 627  0.0 0.0 0.3 0.0
    dihedral_coeff 628  0.0 0.0 0.3 0.0
    dihedral_coeff 629  0.0 0.0 -0.372 0.0
    dihedral_coeff 630  0.0 0.0 0.3 0.0
    dihedral_coeff 631  0.0 0.0 -0.372 0.0
    dihedral_coeff 632  1.423 4.055 0.858 0.0
    dihedral_coeff 633  0.0 0.0 0.3 0.0
    dihedral_coeff 634  0.0 0.0 -0.372 0.0
    dihedral_coeff 635  0.0 0.0 0.3 0.0
    dihedral_coeff 636  0.0 0.0 0.3 0.0
    dihedral_coeff 637  0.0 0.0 -0.372 0.0
    dihedral_coeff 638  0.0 0.0 -0.372 0.0
    dihedral_coeff 639  0.0 0.0 -0.372 0.0
    dihedral_coeff 640  1.423 4.055 0.858 0.0
    dihedral_coeff 641  0.0 2.1 0.0 0.0
    dihedral_coeff 642  0.0 2.1 0.0 0.0
    dihedral_coeff 643  0.0 2.03 0.0 0.0
    dihedral_coeff 644  0.0 7.25 0.0 0.0
    dihedral_coeff 645  0.0 7.25 0.0 0.0
    dihedral_coeff 646  0.0 7.25 0.0 0.0
    dihedral_coeff 647  0.0 7.25 0.0 0.0
    dihedral_coeff 648  0.0 7.25 0.0 0.0
    dihedral_coeff 649  0.0 7.25 0.0 0.0
    dihedral_coeff 650  0.0 10.0 0.0 0.0
    dihedral_coeff 651  0.0 7.25 0.0 0.0
    dihedral_coeff 652  0.0 7.25 0.0 0.0
    dihedral_coeff 653  0.0 7.25 0.0 0.0
    dihedral_coeff 654  0.0 7.25 0.0 0.0
    dihedral_coeff 655  0.0 5.0 0.0 0.0
    dihedral_coeff 656  0.0 10.0 0.0 0.0
    dihedral_coeff 657  0.0 10.0 0.0 0.0
    dihedral_coeff 658  0.0 3.05 0.0 0.0
    dihedral_coeff 659  0.0 4.65 0.0 0.0
    dihedral_coeff 660  0.0 10.0 0.0 0.0
    dihedral_coeff 661  0.0 5.0 0.0 0.0
    dihedral_coeff 662  0.0 2.8 0.0 0.0
    dihedral_coeff 663  0.0 5.0 0.0 0.0
    dihedral_coeff 664  0.0 2.17 0.0 0.0
    dihedral_coeff 665  0.0 2.17 0.0 0.0
    dihedral_coeff 666  0.0 7.25 0.0 0.0
    dihedral_coeff 667  0.0 7.25 0.0 0.0
    dihedral_coeff 668  0.0 3.35 0.0 0.0
    dihedral_coeff 669  0.0 6.0 0.0 0.0
    dihedral_coeff 670  0.0 7.25 0.0 0.0
    dihedral_coeff 671  0.0 7.25 0.0 0.0
    dihedral_coeff 672  0.0 7.25 0.0 0.0
    dihedral_coeff 673  0.0 10.0 0.0 0.0
    dihedral_coeff 674  0.0 10.0 0.0 0.0
    dihedral_coeff 675  0.0 7.25 0.0 0.0
    dihedral_coeff 676  0.0 10.0 0.0 0.0
    dihedral_coeff 677  0.0 7.25 0.0 0.0
    dihedral_coeff 678  0.0 7.25 0.0 0.0
    dihedral_coeff 679  0.0 7.25 0.0 0.0
    dihedral_coeff 680  0.0 4.8 0.0 0.0
    dihedral_coeff 681  0.0 7.25 0.0 0.0
    dihedral_coeff 682  0.0 7.25 0.0 0.0
    dihedral_coeff 683  0.0 10.0 0.0 0.0
    dihedral_coeff 684  0.0 7.25 0.0 0.0
    dihedral_coeff 685  0.0 7.25 0.0 0.0
    dihedral_coeff 686  0.0 13.05 0.0 0.0
    dihedral_coeff 687  0.0 2.17 0.0 0.0
    dihedral_coeff 688  0.0 2.17 0.0 0.0
    dihedral_coeff 689  0.0 2.17 0.0 0.0
    dihedral_coeff 690  0.0 2.17 0.0 0.0
    dihedral_coeff 691  0.0 2.17 0.0 0.0
    dihedral_coeff 692  0.0 7.25 0.0 0.0
    dihedral_coeff 693  0.0 10.75 0.0 0.0
    dihedral_coeff 694  0.0 10.75 0.0 0.0
    dihedral_coeff 695  0.0 10.75 0.0 0.0
    dihedral_coeff 696  0.0 10.75 0.0 0.0
    dihedral_coeff 697  0.0 10.75 0.0 0.0
    dihedral_coeff 698  0.0 7.25 0.0 0.0
    dihedral_coeff 699  0.0 7.25 0.0 0.0
    dihedral_coeff 700  0.0 7.25 0.0 0.0
    dihedral_coeff 701  0.0 2.17 0.0 0.0
    dihedral_coeff 702  0.0 2.17 0.0 0.0
    dihedral_coeff 703  0.0 2.17 0.0 0.0
    dihedral_coeff 704  0.0 2.17 0.0 0.0
    dihedral_coeff 705  0.0 10.75 0.0 0.0
    dihedral_coeff 706  0.0 10.75 0.0 0.0
    dihedral_coeff 707  0.0 10.75 0.0 0.0
    dihedral_coeff 708  0.0 10.75 0.0 0.0
    dihedral_coeff 709  0.0 2.17 0.0 0.0
    dihedral_coeff 710  0.0 2.17 0.0 0.0
    dihedral_coeff 711  0.0 2.17 0.0 0.0
    dihedral_coeff 712  0.0 2.17 0.0 0.0
    dihedral_coeff 713  0.0 7.25 0.0 0.0
    dihedral_coeff 714  0.0 7.25 0.0 0.0
    dihedral_coeff 715  0.0 7.25 0.0 0.0
    dihedral_coeff 716  0.0 7.25 0.0 0.0
    dihedral_coeff 717  0.0 10.75 0.0 0.0
    dihedral_coeff 718  0.0 7.25 0.0 0.0
    dihedral_coeff 719  0.0 7.25 0.0 0.0
    dihedral_coeff 720  0.0 7.25 0.0 0.0
    dihedral_coeff 721  0.0 7.25 0.0 0.0
    dihedral_coeff 722  0.0 2.17 0.0 0.0
    dihedral_coeff 723  0.0 2.17 0.0 0.0
    dihedral_coeff 724  0.0 2.17 0.0 0.0
    dihedral_coeff 725  0.0 2.17 0.0 0.0
    dihedral_coeff 726  0.0 2.17 0.0 0.0
    dihedral_coeff 727  0.0 2.17 0.0 0.0
    dihedral_coeff 728  0.0 2.17 0.0 0.0
    dihedral_coeff 729  0.0 2.17 0.0 0.0
    dihedral_coeff 730  0.0 2.17 0.0 0.0
    dihedral_coeff 731  0.0 7.25 0.0 0.0
    dihedral_coeff 732  0.0 6.089 0.0 0.0
    dihedral_coeff 733  0.0 4.9 0.0 0.0
    dihedral_coeff 734  0.0 6.089 0.0 0.0
    dihedral_coeff 735  0.0 20.0 0.0 0.0
    dihedral_coeff 736  2.3 6.089 0.0 0.0
    dihedral_coeff 737  0.0 4.9 0.0 0.0
    dihedral_coeff 738  2.3 6.089 0.0 0.0
    dihedral_coeff 739  2.3 6.089 0.0 0.0
    dihedral_coeff 740  0.0 0.0 0.0 0.0
    dihedral_coeff 741  0.0 0.0 0.0 0.0
    dihedral_coeff 742  0.0 0.0 0.0 0.0
    dihedral_coeff 743  0.0 0.0 0.0 0.0
    dihedral_coeff 744  0.0 0.0 0.0 0.0
    dihedral_coeff 745  0.0 0.0 0.0 0.0
    dihedral_coeff 746  0.0 0.0 0.0 0.0
    dihedral_coeff 747  0.0 0.0 0.0 0.0
    dihedral_coeff 748  0.0 0.0 0.0 0.0
    dihedral_coeff 749  0.0 0.0 0.0 0.0
    dihedral_coeff 750  0.0 0.0 0.0 0.0
    dihedral_coeff 751  0.0 0.0 0.0 0.0
    dihedral_coeff 752  0.0 0.0 0.0 0.0
    dihedral_coeff 753  0.0 0.0 0.0 0.0
    dihedral_coeff 754  0.0 0.0 0.0 0.0
    dihedral_coeff 755  0.0 14.0 0.0 0.0
    dihedral_coeff 756  0.0 14.0 0.0 0.0
    dihedral_coeff 757  0.0 14.0 0.0 0.0
    dihedral_coeff 758  0.0 14.0 0.0 0.0
    dihedral_coeff 759  0.0 14.0 0.0 0.0
    dihedral_coeff 760  0.0 14.0 0.0 0.0
    dihedral_coeff 761  0.0 14.0 0.0 0.0
    dihedral_coeff 762  0.0 14.0 0.0 0.0
    dihedral_coeff 763  0.0 14.0 0.0 0.0
    dihedral_coeff 764  0.0 14.0 0.0 0.0
    dihedral_coeff 765  0.0 14.0 0.0 0.0
    dihedral_coeff 766  0.0 14.0 0.0 0.0
    dihedral_coeff 767  0.0 14.0 0.0 0.0
    dihedral_coeff 768  0.0 14.0 0.0 0.0
    dihedral_coeff 769  0.0 14.0 0.0 0.0
    dihedral_coeff 770  1.423 4.055 0.858 0.0
    dihedral_coeff 771  1.816 1.222 1.581 0.0
    dihedral_coeff 772  0.0 0.82 0.0 0.0
    dihedral_coeff 773  1.0 0.0 0.0 0.0
    dihedral_coeff 774  -1.697 -0.456 0.585 0.0
    dihedral_coeff 775  -1.697 -0.456 0.585 0.0
    dihedral_coeff 776  -1.697 -0.456 0.585 0.0
    dihedral_coeff 777  6.28 -1.467 2.03 0.0
    dihedral_coeff 778  1.428 0.086 0.029 0.0
    dihedral_coeff 779  1.428 0.086 0.029 0.0
    dihedral_coeff 780  2.732 -0.229 0.485 0.0
    dihedral_coeff 781  0.845 -0.962 0.713 0.0
    dihedral_coeff 782  1.0 0.0 0.0 0.0
    dihedral_coeff 783  0.845 -0.962 0.713 0.0
    dihedral_coeff 784  1.0 0.0 0.0 0.0
    dihedral_coeff 785  0.845 -0.962 0.713 0.0
    dihedral_coeff 786  0.0 0.0 0.462 0.0
    dihedral_coeff 787  1.0 0.0 0.0 0.0
    dihedral_coeff 788  1.438 -0.124 0.264 0.0
    dihedral_coeff 789  0.0 0.0 0.347 0.0
    dihedral_coeff 790  0.0 0.0 0.347 0.0
    dihedral_coeff 791  0.0 0.0 0.0 0.0
    dihedral_coeff 792  0.0 0.0 0.0 0.0
    dihedral_coeff 793  1.7 -0.6 0.0 0.0
    dihedral_coeff 794  0.0 0.0 0.0 0.0
    dihedral_coeff 795  0.0 3.9 0.0 0.0
    dihedral_coeff 796  0.0 7.25 0.0 0.0
    dihedral_coeff 797  0.0 5.0 0.0 0.0
    dihedral_coeff 798  0.0 10.75 0.0 0.0
    dihedral_coeff 799  1.3 -0.05 0.2 0.0
    dihedral_coeff 800  1.3 -0.05 0.2 0.0
    # The following force field parameters were converted from
    # the tinker parameter file (oplsaa.prm) and then edited by hand:
    # Thanks to David Huang (adelaide.edu.au) for the corrections:

    improper_coeff 1  10.5 180.0  # (moltemplate)
    # <==> "imptors 0 0 3 4  21.000 180.0 2" in oplsaa.prm (tinker)
    # <==> "define improper_O_C_X_Y 180.0 43.93200 2" in oplsaa.ff (gromacs)

    improper_coeff 2  10.5 180.0  # (moltemplate)
    # <==> "imptors 0 0 3 52  21.000 180.0 2" in oplsaa.prm (tinker)
    # <==> "define improper_O_C_X_Y 180.0 43.93200 2" in oplsaa.ff (gromacs)

    improper_coeff 3  1.0 180.0  # (moltemplate)
    # <==> "imptors 0 0 24 0  5.000 180.0 2" in oplsaa.prm (tinker) - INCORRECT?
    # <==> "define improper_Z_N_X_Y 180.0 4.18400 2" in oplsaa.ff (gromacs)

    improper_coeff 4  15.0 180.0  # (moltemplate)
    # <==> "imptors 0 0 47 0  30.000 180.0 2" in oplsaa.prm (tinker)
    # <==> "define improper_Z_CM_X_Y 180.0 62.76000 2" in oplsaa.ff (gromacs)

    improper_coeff 5  1.1 180.0  # (moltemplate)
    # <==> "imptors 0 0 48 0  5.000 180.0 2" in oplsaa.prm (tinker) - INCORRECT?
    # <==> "define improper_Z_CA_X_Y 180.0 4.60240 2" in oplsaa.ff (gromacs)

    improper_coeff 6  10.5 180.0
    # <==> "define improper_N2_X_N2_N2 180.0 43.93200" in oplsaa.ff (gromacs)
    # <==> no corresponding line found in oplsaa.prm (tinker)

    # --- As of 2017-9-13, I am unsure if I should add this rule: ----
    # The gromacs file for oplsaa include the following line:
    # "define improper_X_NO_ON_NO 180.0 43.93200" in oplsaa.ff (gromacs)
    # but there is no corresponding line found in oplsaa.prm (tinker)
    # and there is no corresponding line from opls-a.prm (emc (BASF))
    # I'm not sure what the "NO" and "ON" correspond to.  If I had to guess,
    # the corresponding moltemplate line might be one of these two choices:
    # improper_coeff @improper:X_103_102_102  10.5 180.0  ?
    # improper_coeff @improper:X_102_103_103  10.5 180.0  ?
    # but I'd prefer to leave this out.


# ------------------------------- Run Section -------------------------------


# -- minimization protocol --

minimize 1.0e-4 1.0e-6 100000 400000
WARNING: Using 'neigh_modify every 1 delay 0 check yes' setting during minimization (../min.cpp:188)
PPPM initialization ...
WARNING: System is not charge neutral, net charge = -7.4480000 (../kspace.cpp:325)
  using 12-bit tables for long-range coulomb (../kspace.cpp:340)
  G vector (1/distance) = 0.17150266
  grid = 10 10 10
  stencil order = 5
  estimated absolute RMS force accuracy = 0.024211893
  estimated relative force accuracy = 7.2913398e-05
  using double precision KISS FFT
  3d grid and FFT values/proc = 3375 1000
Neighbor list info ...
  update every 1 steps, delay 0 steps, check yes
  max neighbors/atom: 2000, page size: 100000
  master list distance cutoff = 13
  ghost atom cutoff = 13
  binsize = 6.5, bins = 8 8 8
  1 neighbor lists, perpetual/occasional/extra = 1 0 0
  (1) pair lj/cut/coul/long, perpetual
      attributes: half, newton on
      pair build: half/bin/newton
      stencil: half/bin/3d
      bin: standard
Per MPI rank memory allocation (min/avg/max) = 13.37 | 13.37 | 13.37 Mbytes
Step Temp E_pair E_mol TotEng Press 
       0            0    922.11244     324.7661    1246.8785      1891.24 
     418            0   -221.62161    60.913236   -160.70838   -27.047391 
Loop time of 0.311674 on 1 procs for 418 steps with 136 atoms

99.9% CPU use with 1 MPI tasks x no OpenMP threads

Minimization stats:
  Stopping criterion = energy tolerance
  Energy initial, next-to-last, final = 
       1246.8785415704  -160.696532979574  -160.708377033852
  Force two-norm initial, final = 2018.0232 10.160317
  Force max component initial, final = 448.67295 3.2122550
  Final line search alpha, max atom move = 0.0098392141 0.031606064
  Iterations, force evaluations = 418 796

MPI task timing breakdown:
Section |  min time  |  avg time  |  max time  |%varavg| %total
---------------------------------------------------------------
Pair    | 0.11437    | 0.11437    | 0.11437    |   0.0 | 36.69
Bond    | 0.049733   | 0.049733   | 0.049733   |   0.0 | 15.96
Kspace  | 0.13767    | 0.13767    | 0.13767    |   0.0 | 44.17
Neigh   | 0.004499   | 0.004499   | 0.004499   |   0.0 |  1.44
Comm    | 0.0029962  | 0.0029962  | 0.0029962  |   0.0 |  0.96
Output  | 0          | 0          | 0          |   0.0 |  0.00
Modify  | 0          | 0          | 0          |   0.0 |  0.00
Other   |            | 0.002411   |            |       |  0.77

Nlocal:        136.000 ave         136 max         136 min
Histogram: 1 0 0 0 0 0 0 0 0 0
Nghost:        923.000 ave         923 max         923 min
Histogram: 1 0 0 0 0 0 0 0 0 0
Neighs:        5612.00 ave        5612 max        5612 min
Histogram: 1 0 0 0 0 0 0 0 0 0

Total # of neighbors = 5612
Ave neighs/atom = 41.264706
Ave special neighs/atom = 8.2352941
Neighbor list builds = 25
Dangerous builds = 0

# -- simulation protocol --

timestep        1.0

print "---------------------------------------------------------------------------"
---------------------------------------------------------------------------
print "First, use Langevin dynamics to randomize the initial shape of the molecules"
First, use Langevin dynamics to randomize the initial shape of the molecules
print "(This is not really necessary, but it seems to speed up equilibration.)"
(This is not really necessary, but it seems to speed up equilibration.)
print "---------------------------------------------------------------------------"
---------------------------------------------------------------------------

fix fxlan all langevin  300.0 300.0  100  123456  # temp: 300 K
fix fxnph all nph  iso 50.0 50.0 1000.0   # pressure: 50 barr
velocity all create 300.0 12345
run 2000
PPPM initialization ...
  using 12-bit tables for long-range coulomb (../kspace.cpp:340)
  G vector (1/distance) = 0.17150266
  grid = 10 10 10
  stencil order = 5
  estimated absolute RMS force accuracy = 0.024211893
  estimated relative force accuracy = 7.2913398e-05
  using double precision KISS FFT
  3d grid and FFT values/proc = 3375 1000
Per MPI rank memory allocation (min/avg/max) = 12.24 | 12.24 | 12.24 Mbytes
Step Temp E_pair E_mol TotEng Press Volume 
     418          300   -221.62161    60.913236    -39.98557     22.85237       110592 
    2418    301.65399   -314.29371    165.02928   -27.876044   -82.607738    36467.283 
Loop time of 0.850167 on 1 procs for 2000 steps with 136 atoms

Performance: 203.254 ns/day, 0.118 hours/ns, 2352.479 timesteps/s
100.0% CPU use with 1 MPI tasks x no OpenMP threads

MPI task timing breakdown:
Section |  min time  |  avg time  |  max time  |%varavg| %total
---------------------------------------------------------------
Pair    | 0.1915     | 0.1915     | 0.1915     |   0.0 | 22.53
Bond    | 0.11408    | 0.11408    | 0.11408    |   0.0 | 13.42
Kspace  | 0.28755    | 0.28755    | 0.28755    |   0.0 | 33.82
Neigh   | 0.0093405  | 0.0093405  | 0.0093405  |   0.0 |  1.10
Comm    | 0.0059459  | 0.0059459  | 0.0059459  |   0.0 |  0.70
Output  | 1.6212e-05 | 1.6212e-05 | 1.6212e-05 |   0.0 |  0.00
Modify  | 0.23995    | 0.23995    | 0.23995    |   0.0 | 28.22
Other   |            | 0.001774   |            |       |  0.21

Nlocal:        136.000 ave         136 max         136 min
Histogram: 1 0 0 0 0 0 0 0 0 0
Nghost:        930.000 ave         930 max         930 min
Histogram: 1 0 0 0 0 0 0 0 0 0
Neighs:        8060.00 ave        8060 max        8060 min
Histogram: 1 0 0 0 0 0 0 0 0 0

Total # of neighbors = 8060
Ave neighs/atom = 59.264706
Ave special neighs/atom = 8.2352941
Neighbor list builds = 63
Dangerous builds = 0
unfix fxlan
unfix fxnph

print "---------------------------------------------------------------------------"
---------------------------------------------------------------------------
print "--- Now continue the simulation using a Nose-Hoover Thermostat/Barostat ---"
--- Now continue the simulation using a Nose-Hoover Thermostat/Barostat ---
print "---------------------------------------------------------------------------"
---------------------------------------------------------------------------
dump            1 all custom 1000 traj_npt.lammpstrj id mol type x y z ix iy iz
# temperature: 300 K, pressure: 50 barr
fix             fxnpt all npt temp 300.0 300.0 100.0 iso 50.0 50.0 100.0 drag 1.0
thermo          100
#thermo_modify  flush yes

run             100000
PPPM initialization ...
  using 12-bit tables for long-range coulomb (../kspace.cpp:340)
  G vector (1/distance) = 0.18436642
  grid = 8 8 8
  stencil order = 5
  estimated absolute RMS force accuracy = 0.024228598
  estimated relative force accuracy = 7.2963704e-05
  using double precision KISS FFT
  3d grid and FFT values/proc = 2197 512
Per MPI rank memory allocation (min/avg/max) = 12.15 | 12.15 | 12.15 Mbytes
Step Temp E_pair E_mol TotEng Press Volume 
    2418    301.65399   -315.34698    165.02928   -28.929318   -85.844628    36467.283 
    2500    335.13893   -324.46892    153.48214   -36.123732   -147.71686     33015.92 
    2600    336.32182   -346.56852      156.328   -54.901472    13.709076    26939.751 
    2700     358.5864   -359.82551    137.61795   -77.909031   -93.339455    22736.544 
    2800    336.65642   -390.31577    144.16472   -110.67735     -18.6334    16888.674 
    2900    338.98942   -410.20678    132.56772   -141.22656   -175.85168    13732.575 
    3000    339.62726   -446.61152     128.5594   -181.38293    237.49438    10231.878 
    3100       317.56   -478.67305    131.54706   -219.33687   -708.28809    8143.6434 
    3200    305.56994    -513.0933    127.90239    -262.2267    167.52556    6355.2036 
    3300    290.91883   -504.34011    123.00849   -264.26316   -366.36128    6391.2743 
    3400    281.94515   -511.76489     133.6592   -264.64832    167.32228    6160.2102 
    3500     271.4901   -507.77348    138.01715   -260.50617    -270.5373     6205.594 
    3600    300.03768   -507.96751     128.9576   -258.27194    395.53721    6229.9109 
    3700    284.04539   -516.89937    134.61421   -267.98264    426.85633    5725.7595 
    3800    288.98321     -524.056    136.32408   -271.44237   -347.58769    5459.0713 
    3900    320.66026   -532.66233    133.37516   -270.25048   -366.22186    5428.8329 
    4000    306.74032   -529.44363    136.62776   -269.38069   -427.60013    5636.2406 
    4100     288.3665   -513.21137    136.32574   -260.84426   -483.64977    6022.7672 
    4200    304.73983    -520.6685    139.70586   -258.33248   -317.46016    6036.7144 
    4300    310.45709   -512.60621    133.22919   -254.44618    74.245625    6442.7129 
    4400    311.19195   -523.36936    131.00692   -267.13589    283.84175    6094.8025 
    4500    266.22539   -509.03591    137.68269   -264.22163   -501.59773    6335.4634 
    4600    309.46171   -519.59115     130.4399   -264.62096    924.71046    6131.9155 
    4700    308.31804   -536.55818    126.85083   -285.63729    275.91174    5417.5244 
    4800    302.92509   -537.59091      131.044   -284.64702    887.21554    5486.8231 
    4900    320.24431   -562.88943    126.86258   -307.15754    659.22133    4806.1698 
    5000    309.97254   -565.10639    130.48554     -309.885    1445.9083    4817.7698 
    5100    299.28991   -578.18529    132.25441   -325.49382    4.3998279    4534.5488 
    5200    303.75012   -566.98227    124.37144   -320.37894     2453.587    4722.1324 
    5300    276.32108   -536.38467      133.257   -291.93348   -907.50819    5574.7861 
    5400    293.08634    -526.4653    131.81667   -276.70795   -297.43036    5957.3877 
    5500    303.00676   -512.76844    127.03557   -263.80011   -755.29145     6381.939 
    5600    291.60699    -521.2708    138.24235   -265.68307    606.18897    6100.3322 
    5700    300.71219   -531.80602    140.37539   -270.42123    360.40205    5867.1577 
    5800     294.6717   -519.12613    138.49136   -262.05612    297.48634    6356.3096 
    5900    306.02086   -552.54108    135.07164   -294.32379   -829.20559    5273.3267 
    6000     292.0676   -539.87581    135.20442   -287.14066    44.445483    5726.1891 
    6100    300.51946   -527.15929    124.52094   -281.70651   -4.5077596    5974.2486 
    6200    288.75765    -532.7831    136.92205   -279.66226   -5.4708637     5865.487 
    6300    305.09044   -533.84598    132.03872   -279.03602   -47.580958    5800.6928 
    6400    275.59888    -543.9856    139.05524   -294.02679   -147.57204    5275.0237 
    6500    293.79428   -529.89876    134.63955   -277.03364   -210.68608    5864.3112 
    6600    325.59431   -537.79485    133.70986   -273.06279   -1046.6641    5879.8768 
    6700    288.34967   -523.63165    138.62897   -268.96807   -1149.3773    6157.2025 
    6800     294.2727   -539.03986    141.49571   -279.12607   -923.14276    5708.4732 
    6900    291.50238   -545.51829    144.53084   -283.68416   -623.19157    5510.9124 
    7000    314.92274   -536.80624    133.61953   -276.45884    455.48761    5820.3685 
    7100    311.68234   -539.47558    132.89528   -281.15642    428.56815    5787.1074 
    7200    308.26483   -529.19697    127.31885   -277.82946   -151.08009    5932.9571 
    7300    311.61416   -536.59524    133.56344   -277.63534   -1350.1501    5801.1974 
    7400    288.44701   -539.72247    145.78859    -277.8601   -1091.4628    5711.8808 
    7500    301.93149   -537.26088    140.39741   -275.36341   -628.67387    5740.7643 
    7600    312.76931    -544.2514    142.92266   -275.46744    166.71188    5706.2686 
    7700    302.02105   -532.71366    138.52731   -272.65025    202.47141    5978.7204 
    7800    301.24133   -529.95091    140.70495   -268.02364   -527.61025    6196.9985 
    7900     315.1352   -530.61626     136.9729   -266.83001   -820.90275    6092.1077 
    8000     293.9225   -543.48716    147.98791   -277.22208   -975.16196    5524.0583 
    8100    290.84268   -542.65969    148.65728   -276.96459    912.84016     5530.978 
    8200    315.53913   -550.87689    140.64275   -283.25825    491.31735    5350.2997 
    8300    298.20687   -550.99675    142.24569   -288.74982    184.03764    5262.0301 
    8400    298.91007   -562.54526      137.005   -305.25606   -201.19826    4759.9978 
    8500    316.30597   -564.67476     137.4822   -299.90808    361.08938    4774.5821 
    8600      304.295   -568.62704    144.86749   -301.30839   -171.12676    4734.7134 
    8700    297.36986   -564.07286    148.21038   -296.19806    766.21354    4889.4293 
    8800    287.81102   -559.91359    146.24966   -297.84609   -11.846019    4866.9322 
    8900    305.21129   -570.17448     143.8276     -303.527    1598.3415    4679.0683 
    9000    324.37183   -575.77975     140.1912   -305.05828   -342.63814    4688.0515 
    9100    306.71959   -570.24892    139.16046   -307.66163     1358.822    4746.3258 
    9200    288.56135   -561.74335     144.2924   -301.33116   -93.040806    4987.1871 
    9300    311.49151   -569.27678     139.3223   -304.60738    1470.7401    4854.8712 
    9400    296.72213   -561.49511    141.74727   -300.34408   -486.70315    5010.4705 
    9500    320.85086   -575.55249    134.51482   -311.92429     1405.017    4595.5214 
    9600    307.00991   -585.40304    143.66309   -318.19629    824.11341    4405.9408 
    9700    304.83931   -582.40317     148.2553   -311.47767    564.55762    4536.6347 
    9800    286.49685   -570.88155    148.17714    -307.4154    1325.7965    4761.3933 
    9900    279.21889   -561.01349      148.218   -300.43519   -1031.4014    5018.1105 
   10000    277.81877    -585.5359    153.63151   -320.10751    1080.2295    4482.0903 
   10100    294.18283   -573.32578     141.7967   -313.14716    30.253381    4652.0287 
   10200    327.31881   -584.19136     134.8092     -317.666    1838.2548    4494.6076 
   10300    307.70668   -575.94795    140.52189   -311.60201    39.630623    4690.0968 
   10400    264.94797   -562.36593    153.10279   -302.64559   -248.25678    4943.0552 
   10500     300.1072   -558.37058    138.66747   -298.93717    203.98505    4970.4728 
   10600    300.95515    -552.4381    142.29462   -289.03631   -1057.1889    5167.4302 
   10700    312.32973   -579.24892     146.2272   -307.33732    745.56628    4553.4626 
   10800    281.22199   -575.14477    152.29642   -309.68199    313.10879    4572.5133 
   10900    297.77947   -580.08348     150.1367   -310.11753   -179.65053    4533.4269 
   11000    302.53294   -575.95533    147.02663   -307.18661   -400.27183    4637.7376 
   11100    308.90768   -577.44258    142.55747   -310.57777    410.52902    4607.6782 
   11200    307.18617    -579.2015    144.50878   -311.07813   -717.02632    4566.4972 
   11300     295.7624   -574.93397    150.05286   -305.86355    1552.0801    4663.1226 
   11400    283.58556    -545.5496    147.98421   -283.44791   -548.44526    5386.2836 
   11500    293.73431   -547.67336    151.39885   -278.07307     1038.684    5498.9179 
   11600    318.39328   -558.70023    144.69018   -285.88561    40.432356    5279.9758 
   11700    310.37217   -558.02551    144.26739   -288.86147    1788.3381    5357.1066 
   11800    289.53235   -550.40695    146.39215   -287.50428   -1479.9386    5531.0305 
   11900     285.5545   -539.20578    141.67831   -282.61767    175.52581     5631.249 
   12000    311.49479   -555.63757    140.08569   -290.20347   -552.86347     5239.956 
   12100     285.3615   -555.00419    149.50119   -290.67086    1119.8063    5114.2596 
   12200    280.41604   -542.09292    153.96827    -275.2826    -787.3506    5529.2134 
   12300    298.37451   -547.85088    153.38035   -274.40184    258.11281    5489.7964 
   12400    285.31835    -542.4697    153.69688   -273.95806   -674.77069    5566.8149 
   12500    307.73997   -543.72837    147.09957   -272.79136    586.57218    5635.9529 
   12600     282.3586   -541.25752    153.26983   -274.36394    959.41496    5586.1135 
   12700    287.16553   -539.88665    153.63801   -270.69055   -36.918862    5647.3988 
   12800    307.49283   -528.27521    146.15492   -258.38229    226.80286    6170.4457 
   12900    296.27945   -528.16925    155.26131   -253.68232    101.26909    6402.2806 
   13000    299.34589   -527.30538    148.70876   -258.13703    766.08043    6272.9492 
   13100    296.85035   -524.96348    149.38675   -256.12137   -750.07984     6332.729 
   13200    316.69784   -533.13931    143.52943    -262.1677     1210.491    5995.1874 
   13300    299.07932   -540.22556    150.79545   -269.07779   -409.46004    5780.9898 
   13400    295.09956   -531.14444    146.36162   -266.03199    1084.0835     6107.204 
   13500     280.5934   -539.17049    153.42882   -272.82826    -673.9717    5815.2035 
   13600    315.04177   -540.20539     144.0279   -269.40174    903.45571    5913.9806 
   13700    311.38812   -530.05688    138.94531   -265.80608    344.31678    6049.6974 
   13800    291.89444   -525.13227    148.32763   -259.34359    1569.7679    6288.7949 
   13900    298.45822   -525.61874    150.37908   -255.13728   -848.37907     6410.172 
   14000    306.59543   -535.63346    149.40467   -262.85192    70.681374    6131.6781 
   14100    295.63379   -531.65752    149.22398   -263.46774   -1172.4761      6254.44 
   14200    293.08491   -545.79694    149.12165   -278.73517    1064.7972     5619.313 
   14300    282.56227   -544.91338    153.34508    -277.8626   -887.53046      5678.45 
   14400    316.99959   -543.54658     139.0997   -276.88327    1211.6052    5717.9042 
   14500    315.37657   -539.44836    135.47774   -277.06014   -385.26976    5723.6137 
   14600    307.71833   -539.26494    141.96334   -273.47287    938.95796    5805.7051 
   14700    293.24135   -545.86234    148.55245   -279.30683   -892.40735    5581.0399 
   14800    311.88187   -546.88803    143.67589   -277.70796    532.78996    5695.3028 
   14900    292.91294   -542.58472    145.94705   -278.76676   -477.03932    5718.0708 
   15000    295.81336   -557.80411    146.09808   -292.66796    1260.7315    5159.0492 
   15100    269.28743   -560.11988    160.00632   -291.74978   -642.47289    5069.1227 
   15200    297.48638   -567.31611    154.40084   -293.20396    487.94548    5073.4481 
   15300    316.71959   -575.09629    137.98785   -309.65751   -259.15898    4756.0243 
   15400    302.64796   -559.50366    138.94372   -298.77158    882.11715    5036.4401 
   15500    309.35369   -568.59096    150.73513   -293.36901    -214.2751    5025.1125 
   15600    296.49971   -557.32343    149.39645   -288.61273    576.90888     5196.252 
   15700    294.72537    -561.8204    148.68868   -294.53147    794.69266    5034.0038 
   15800    291.83293   -560.32152    151.87346   -291.01176    860.99695    5102.1567 
   15900    314.92195   -559.00399    141.28617   -290.99028    971.03835    5122.2569 
   16000    299.66862   -549.32583    145.59211   -283.14426   -469.57701    5357.2439 
   16100    310.84373   -554.11205    148.70163     -280.324   -567.58985    5390.8924 
   16200    302.48749   -543.05362    148.89863   -272.43119   -523.67899    5696.2955 
   16300    303.20204   -546.67868    148.77912   -275.88823    713.13793    5562.8739 
   16400    307.91444   -551.75995    150.12337   -277.72892   -561.22128     5440.169 
   16500    297.95127   -560.42437    151.34227   -289.18371    1274.4811    5040.2026 
   16600    298.59148    -557.4731    155.06739    -282.2497   -536.02541    5170.7869 
   16700    303.65463   -554.98229     155.9602   -276.82863    2305.6067      5234.38 
   16800     329.9369   -558.62193    150.98831   -274.86393   -1042.5342    5304.3771 
   16900    268.16653   -538.48714    163.48374   -267.09067   -175.81559    5717.6617 
   17000    290.85567   -557.37184    160.58836   -279.74044   -1053.9296    5224.5213 
   17100     302.5004   -545.84169    153.63167   -270.48103    718.80456    5592.8417 
   17200    313.50069   -566.29308    150.67208   -289.46538    1432.9348    5038.6752 
   17300    281.26928   -558.42973    160.05181   -285.19253    880.67229     5276.052 
   17400    294.59533   -564.62188    155.00028   -291.07367   -843.15568    5130.4326 
   17500    291.39633   -555.83209    151.50895   -287.06253   -522.94581    5333.2648 
   17600    296.05222    -567.2267    160.10973   -287.98279   -754.03461    5223.4044 
   17700    273.26857   -543.87925    154.13199   -279.78143    593.15718     5577.128 
   17800     291.5407   -561.42026    158.83341   -285.26815   -827.07828    5327.8913 
   17900    285.83372   -554.61391    156.21742   -283.37433    355.97252    5389.4119 
   18000    309.13448   -571.52507    152.28419   -294.84227    130.04855    5048.1675 
   18100    302.11848   -558.72674    147.31527   -289.83616    792.26105     5240.233 
   18200    319.70706   -562.86043    149.21589   -284.99143   -1069.0453    5346.0728 
   18300    327.17922   -560.92378    145.44331    -283.8205    -715.9631    5388.7881 
   18400    316.22023   -566.80569    152.11738   -287.43833    770.63942    5323.3224 
   18500    306.58909   -564.23404    149.20634   -291.65339   -217.83542    5355.3756 
   18600     298.2335   -554.05642    144.44896   -289.59551    50.998063    5547.0143 
   18700    293.71778   -566.34984    152.73783   -295.41723    -262.9899    5261.3767 
   18800    303.71979   -560.79464     151.3816   -287.19335     127.0444    5514.1051 
   18900    309.26895    -576.7769    156.14616   -296.17802   -884.84854    5153.2372 
   19000    292.20883   -563.13512    153.66968   -291.87787    1029.4565    5385.1635 
   19100    307.20476   -571.59044    151.90129   -296.06708    -640.5634    5140.4227 
   19200    286.90207   -577.05097    159.96615   -301.63274    678.30707    4936.1422 
   19300    279.19978   -573.72392    161.02453   -300.34679   -1508.3959    4989.5207 
   19400    299.03206   -566.59906    152.90884   -293.35692    1118.8051    5150.2951 
   19500     288.9018   -577.32547    159.44102   -301.62767   -1121.6875    4840.7802 
   19600    293.92669    -569.0017    153.94345    -296.7794    843.91155    4950.3353 
   19700    290.64073   -574.26593     158.1394   -299.16998   -1046.2581    4904.6177 
   19800    296.14783   -569.75198    156.02309   -294.55623    786.04195    4979.0654 
   19900     312.2325   -574.77383    150.80331   -298.32524   -689.72169    4830.6285 
   20000    298.22141   -580.14284    156.50099   -303.63476    1630.6592    4711.1741 
   20100    320.47959   -585.03146    148.87325   -307.19422    1179.7739    4693.2299 
   20200    283.18579   -567.86294     156.9144   -296.99193    2202.6028    5069.7279 
   20300    285.82121   -561.75296    160.20481   -286.53102    39.657173    5386.2693 
   20400    303.14064   -562.49235    149.41905   -291.08667    987.32515    5298.1689 
   20500    291.29224   -554.91005    154.90921   -282.78212   -260.16962    5597.2142 
   20600    289.63857   -562.46324    156.95147    -288.9585    614.57328    5407.6872 
   20700    297.86359    -557.6508     148.1103   -289.67741   -8.2588818    5576.1719 
   20800    285.11071     -558.894    150.79233   -293.37045    1487.7533     5413.435 
   20900    290.09043   -569.53543    155.25166   -297.54866   -24.939183    5204.3514 
   21000    271.07915   -557.91883    153.81612   -295.01793    698.27238    5326.0537 
   21100    303.98693   -569.50057    143.16164   -304.01175    724.60938    4971.7027 
   21200    311.56345   -563.92625    148.31145   -290.23875   -198.51354    5298.4096 
   21300    319.20036   -561.59449    140.12377   -293.02151    803.30476     5336.825 
   21400    300.09277   -544.55121    146.04561   -277.74546    -221.5673    5974.3559 
   21500    302.01637   -537.18638    141.65308   -273.99909    352.71331    5994.3587 
   21600    302.11012   -556.21299    155.02568   -279.61538    -428.3795    5536.2466 
   21700    317.35713   -556.34083    148.84879   -279.78456    887.85043    5535.8571 
   21800    321.66785   -575.32338    144.70929   -301.17195   -465.17718    4979.7305 
   21900    303.65442    -577.2226    151.17862    -303.8506    487.70717    4975.3318 
   22000    276.87397   -573.02806    161.74055   -299.87083    1075.7672    5080.2442 
   22100    299.43654   -571.65513    150.95966   -300.19941    1417.7747     5047.726 
   22200    271.65387   -563.91897    163.71184   -290.89107    165.69741    5320.0311 
   22300    301.27713   -565.44817    153.74875   -290.46269    156.10329    5333.5039 
   22400    293.99856   -577.44178    157.17045   -301.96356   -111.95229    5070.3856 
   22500    277.67749   -579.33224    157.19669   -310.39553     957.8726    4928.7169 
   22600    285.01726    -566.8764    150.06393   -302.11886    294.52363    5228.8996 
   22700    304.12892   -581.13023    150.08862   -308.65729    751.91509    4939.2733 
   22800    283.56043   -574.84781    155.12173   -305.61872    50.827955    4996.9389 
   22900    310.90539   -578.43103    147.26053   -306.05927    212.01356    4965.8002 
   23000    314.14021   -582.95761    148.16831   -308.37635    692.48874     4925.074 
   23100    287.44871   -576.09368    153.62536   -306.79627    347.06892    5050.9671 
   23200    312.39202   -588.07688    144.54983   -317.81758      -327.76    4737.1824 
   23300    305.58701   -586.82068     148.3542   -315.49541    233.23246    4724.3742 
   23400    293.53554   -589.43795    155.35868   -315.95783    586.46034    4669.3856 
   23500    289.66569   -580.41727    154.76098   -309.09211    172.68458    4827.6997 
   23600    292.71025   -575.34919    155.41212   -302.14772    179.20424    4928.7339 
   23700     284.1643   -581.21458    163.01056   -303.85364   -827.26705     4816.792 
   23800      323.767   -580.41592    145.03318   -305.09587   -436.89887    4867.4846 
   23900    316.87628   -569.86741    143.53856   -298.81487    100.02969    5102.3372 
   24000    301.45559   -573.32852    151.19528   -300.82469    664.80372    4964.6161 
   24100    302.75425   -569.08256    152.26756   -294.98385   -1145.4551    5094.7251 
   24200    333.73812   -571.05854    139.24888   -297.51032    119.62596     4900.598 
   24300    300.44011   -572.06968    155.60334   -295.56643    -106.8677    4942.6126 
   24400    312.55186   -576.26599    152.88331   -297.60889   -513.17961    4940.7891 
   24500     326.8921   -572.64668    144.72563   -296.37662   -134.24323    5074.8068 
   24600    293.95761   -573.61651    151.40365   -303.92157   -388.76398    4962.9235 
   24700    298.86937   -569.77574    149.77028   -299.73762    865.59198    5066.5688 
   24800    287.95235   -568.92819    158.32168    -294.7318    -458.5477    5083.6977 
   24900    289.42278   -567.94324    158.40615   -293.07065    283.83054    5079.2502 
   25000    302.77975   -577.47554    154.88239   -300.75175   -131.09647    4839.2612 
   25100    324.25555   -581.06733    146.34865   -304.23521   -88.172864     4742.501 
   25200    290.16679   -580.13941     161.8932   -301.48038   -994.89901    4863.9693 
   25300    299.76685    -569.6777    155.39454   -293.65418    540.35134    5186.2055 
   25400    282.42126   -573.48169    160.47693    -299.3558   -535.16804     5063.415 
   25500    279.36017   -565.58622    157.24848   -295.92059    431.26702    5193.0419 
   25600    307.84437   -584.95484    154.75649    -306.3189   -835.03162    4847.4786 
   25700    332.48738   -579.40298    140.06902   -305.53793    1368.1921    4945.1578 
   25800     307.3147   -580.46769    148.19484   -308.60655   -37.340976    4896.7493 
   25900    329.24829   -582.12193     142.9391   -306.69023    79.042572    4989.3561 
   26000    310.81971   -568.25727    139.31428   -303.86622    39.810943    5142.1233 
   26100    286.05187   -566.39451    150.26701   -301.01756   -419.93956    5149.0378 
   26200    300.84891   -569.42255     151.5287   -296.82943   -613.81915    5166.1023 
   26300    310.22462   -574.92376    152.10134   -297.98512   -569.57968    5173.1895 
   26400    296.76366   -553.61121    146.17318   -288.01756   -1123.8815    5672.4497 
   26500    323.29913   -569.90441    144.06217   -295.74365    -239.6038    5288.4369 
   26600    289.23397   -570.92894    152.73082   -301.80766   -4.7045196    5124.7576 
   26700    310.30212   -572.64133      148.239   -299.53386    295.43971     5151.129 
   26800    304.06942   -571.13162    151.00145    -297.7698   -1146.5832    5195.9867 
   26900    294.67492   -563.50582    151.98328    -292.9426    829.54794    5337.0034 
   27000    298.46718   -587.55993    157.08709   -310.36686    496.17327    4728.7678 
   27100    322.28169   -587.86249    146.48236   -311.69096    1279.1824     4720.476 
   27200    316.34289   -601.63838    148.63989   -325.69915   -727.89839    4408.1151 
   27300    301.98901    -591.6629    148.42237   -321.71733    -459.4269    4500.8244 
   27400    304.32157   -596.06439    152.89653   -320.70602    324.49175    4483.6349 
   27500    295.89117   -578.36275    151.75987   -307.53351    451.82893    4802.0351 
   27600    292.96957   -586.68538    158.23355   -310.55813    542.28346    4633.8793 
   27700    317.64414   -576.00248    148.26006   -299.91945     1044.571    4968.5266 
   27800    341.34654   -593.40277    142.91789   -313.12384   -90.667453    4666.7336 
   27900    286.03391   -574.60761     155.3051   -304.19979    -66.92941    4993.5477 
   28000    306.75665   -586.26451    151.62638   -311.19638    1274.2261    4699.3903 
   28100    310.26509   -596.84939    154.03651    -317.9593   -733.76348    4504.3203 
   28200     292.3279   -587.61721    158.02469   -311.95704    970.65692    4662.3311 
   28300    300.75093   -616.98564    158.13028   -337.83038    1222.0205     4116.658 
   28400    296.63314   -594.93661    152.44772   -323.12093    398.54527    4501.1992 
   28500    311.55485   -597.40154    149.50808   -322.52087   -264.87245    4465.5178 
   28600    298.14649   -586.18496    153.97739   -312.23063    209.07112    4779.2035 
   28700    311.18861   -581.24306    150.19893   -305.81891    76.375865    5013.8625 
   28800    318.89921   -580.72608    145.69228   -306.70578    1477.0366    4996.5037 
   28900    299.48277   -583.15841    153.19012   -309.45362   -521.08264    4950.8731 
   29000    306.33979   -567.13577    142.43232   -301.42945   -725.79812    5266.6329 
   29100    289.27266   -586.40742    156.46703   -313.53437    -342.4889     4788.732 
   29200    287.96669   -571.68871    156.93248   -298.87574   -8.2483591    5121.8532 
   29300    288.03147    -591.2856    162.58079   -312.79824   -482.88155    4647.7954 
   29400    317.56904   -589.33023    144.36166   -317.17582    639.80977    4554.9289 
   29500    315.45137   -580.13025    149.78472   -303.40495    1636.3322    4917.3594 
   29600     303.8864   -579.13645    155.54772     -301.302   -1127.3943    5012.9589 
   29700    280.34546   -565.84913     158.3102   -294.72529   -288.21102    5271.5881 
   29800    287.66723   -568.55717    156.35938   -296.43781   -729.58837    5155.9973 
   29900    317.55986   -558.36601    143.98475    -286.5922   -159.98755    5450.4934 
   30000    327.14789   -571.27536    150.32503   -289.30295    63.117722    5219.3025 
   30100     313.0703   -561.81573    150.55368   -285.27963    347.55624    5359.2109 
   30200    312.75846   -578.87465    156.06269   -296.95502    1021.9242    4993.3199 
   30300    314.97636    -589.2244    152.80478   -309.67019    838.26706    4712.6061 
   30400    314.14555     -584.184    149.03872   -308.73017   -162.39836    4786.1912 
   30500    295.10133   -596.79836    156.85603   -321.19079    1472.0347    4487.3105 
   30600    303.01984   -586.91854     151.8992   -313.08133   -172.34815    4702.9279 
   30700    299.41623   -593.66803    156.30606   -316.87408    800.24378    4666.5578 
   30800     317.0217   -589.43299    147.00163   -314.85887   -705.41641    4797.1582 
   30900    298.24395   -576.80888    154.66146   -302.13126     222.3316    5203.4288 
   31000    268.17342   -569.86301    164.19605   -297.75147    355.62192    5298.2046 
   31100    298.02758   -564.51082    158.53006   -286.05168   -34.869619    5606.0921 
   31200    312.29575   -559.98861    149.79493   -284.52295    52.479685    5626.4617 
   31300    275.13804   -573.47198    168.40226   -294.35159   -530.95137    5294.1097 
   31400    277.76314   -575.39435    159.97043   -303.64943    169.04479    5072.4765 
   31500    304.51017   -588.24606    154.44379   -311.26453    102.84841    4945.6874 
   31600     270.7928   -567.28766    155.78808   -302.53003   -607.42977    5347.1787 
   31700    269.17157   -573.74974    160.45726   -304.97532   -106.18093    5104.0457 
   31800    275.96671   -572.42224    164.70699   -296.66367   -255.92151    5157.8924 
   31900     295.9444   -572.78205    160.39649   -293.29477   -770.15377    5224.6033 
   32000    306.37004   -571.76182    157.21094    -291.2647   -831.34534    5326.7939 
   32100    290.35311   -569.20526    159.41781   -292.94665   -1681.4266    5353.2221 
   32200    315.41035   -572.26902    145.65761   -299.68734    54.645867    5054.7427 
   32300    302.70271   -568.29076     159.0768   -287.40356   -1046.2861    5253.2906 
   32400    301.05325   -571.64349     162.9207   -287.57615    567.49846    5211.6099 
   32500    294.74391   -565.45667    159.67402   -287.17495    34.554168    5344.2433 
   32600    308.40575   -569.15565     151.3543   -293.69599    580.78892    5205.7447 
   32700    293.10642   -580.23599    161.97607   -300.31115   -611.37091    5043.5637 
   32800    301.98039   -579.78256     154.0362   -304.22663    539.06601    4964.0633 
   32900    287.26441   -579.42201    162.26447   -301.55965   -368.69325    4995.2536 
   33000    293.73696   -590.91983    163.42501   -309.29232    583.87999    4778.8268 
   33100    288.88387   -589.15819    162.62345   -310.28518    378.44185    4875.0639 
   33200    287.51297   -582.76359    155.56032   -311.50536    969.68293    4931.3213 
   33300    283.59172   -572.30527    157.27139   -300.91392   -29.522501    5247.4566 
   33400    287.94727   -573.06727    159.22014   -297.97446    1301.8875    5172.4597 
   33500    303.79263   -561.02611    152.67398   -286.10313    1243.7435    5451.0272 
   33600    314.67421    -575.9236    155.37169   -293.92406    1148.5438    5100.9789 
   33700    297.23128    -573.1165    157.75171   -295.75614    1275.0569    5139.9396 
   33800    305.98219   -586.58626    158.79444   -304.66172    1859.9663    4941.5027 
   33900    310.79655   -575.81993    146.71056   -304.04193    574.79283    5175.3365 
   34000    312.05876   -580.88951    145.82289   -309.49125    102.90052    4997.4583 
   34100    289.88692   -593.28573    157.57541    -319.0571    600.51727    4685.8011 
   34200    282.00149   -593.55425    162.26289   -317.81132    601.79071    4642.6716 
   34300    304.03226   -587.50326    149.25976   -315.89807    1962.8096    4652.9492 
   34400    325.79155   -595.60868    146.76867   -317.73844    803.94484    4508.3494 
   34500     311.8876   -607.42946    159.20668   -322.71629    2101.8545    4372.3833 
   34600    297.94887   -603.69582    163.14903   -320.64938    251.66269    4525.7999 
   34700    301.27402   -591.31283    150.29508   -319.78226    2142.3126     4657.658 
   34800    281.03615   -590.42471    159.43142   -317.90171   -451.15262    4681.4957 
   34900    300.23438   -588.81785     155.6094   -312.39133   -293.59651    4780.4364 
   35000    285.67237   -578.78795    158.43765   -305.39307    -139.7047    4928.6024 
   35100    279.25619   -586.51747    170.93853   -303.20365    844.05657    4883.3603 
   35200    314.66171   -578.59069    152.61852   -299.34935   -567.23275    5029.6221 
   35300    307.18743   -582.48111     158.2597   -300.60631   -470.59594    5021.7815 
   35400    286.64407   -592.13657    163.67206   -313.11626   -187.87641     4718.763 
   35500     296.8676   -596.41209    157.94891   -319.00088    1218.6151    4581.3375 
   35600     317.3463   -593.10452    148.64631    -316.7551   -1673.6854    4585.8763 
   35700    307.70862   -610.69124    160.21101    -326.6554    724.91302    4279.5648 
   35800    312.91527   -592.16953    150.01152   -316.23798   -840.02237     4613.797 
   35900    312.05345   -597.09978    145.51638   -326.01017    196.72975    4446.8338 
   36000    287.05253   -592.90389    162.30083   -315.09044   -1852.3787    4661.1218 
   36100    290.72671   -596.90248    156.74826   -323.16306    1193.3357    4486.8689 
   36200    331.11154   -594.39253    142.98667   -318.16349   -653.58787    4611.6274 
   36300    305.10601   -579.99517    147.80079   -309.41687   -605.76173    4842.2477 
   36400    292.61581   -580.03444    156.44959   -305.83351    163.66696    4856.4198 
   36500    324.03043   -593.34382    152.04277   -310.90818   -1540.4588    4732.2608 
   36600    298.03728   -584.82531    153.34612    -311.5462    319.71795    4829.5696 
   36700    251.01981   -588.18924    168.02215   -319.15437   -666.94546    4674.0136 
   36800    304.85297   -575.60807    147.79455   -305.13783    930.69357    5051.0813 
   36900    310.09577   -577.09795    148.98059   -303.33192   -660.08502    5084.8813 
   37000    292.99215   -569.86794    152.29479   -299.67037    218.09006     5191.414 
   37100    311.62989   -582.02969     155.9972   -300.62971   -1844.2462    5116.7271 
   37200    303.85097    -580.6776    152.28965   -306.11547   -59.411819    5015.6311 
   37300    318.25352   -583.99699    146.59178   -309.33702   -507.16814    4950.3619 
   37400    328.50959   -592.09592    142.72235   -317.17824   -218.20594    4768.6284 
   37500    300.03147    -588.4671      153.081   -314.65063    -725.0773    4856.7267 
   37600    311.65917   -593.03378    144.39228   -323.22694    568.71861    4636.6116 
   37700    288.60894   -577.83957     152.6305   -309.07013   -1076.5386    4967.0792 
   37800     311.4909   -565.24195    140.81702   -299.07807    182.45172    5149.0979 
   37900    278.91074   -565.42154    158.36283   -294.82242   -1457.8269    5081.9769 
   38000    301.78997    -584.7667    159.85804   -303.46555   -1247.9214    4772.1552 
   38100    310.79834   -583.38213    150.83884   -307.47514   -876.72159    4819.5221 
   38200    306.91309   -587.56204    149.48561   -314.57173   -545.39959    4755.3383 
   38300    297.61203   -591.14134    155.43867   -315.94081    727.06791    4765.1075 
   38400    322.05195   -589.28065    142.06616   -317.61778    1589.5164    4812.4761 
   38500    317.39281    -580.3335    141.88871   -310.72296    863.77504    5054.7192 
   38600    306.98118   -573.07328    147.64579   -301.89539   -302.43455    5252.5993 
   38700    303.44208   -589.71746    156.87621   -310.73332     1036.026      4929.15 
   38800     279.7528   -573.44069    160.60214    -300.2634   -346.45241    5242.4536 
   38900    308.22113   -576.59339    149.70004   -302.86228    315.47603    5100.3119 
   39000    315.34715   -580.55669    148.67749   -304.98056     596.8711    5038.8636 
   39100    274.97064   -574.79108    157.92239   -306.21794    1127.8905    5028.4321 
   39200    285.15672   -575.94299    158.79467   -302.39858    699.09859    5065.2122 
   39300    283.59912   -579.10991    161.91812   -303.06885    424.11391    5027.0029 
   39400     309.4905    -576.4359    153.54351   -298.35052    404.64612    5203.9852 
   39500    277.76122   -574.82432     162.0768    -300.9738    696.68179    5199.2733 
   39600    286.38092   -581.28861    157.98966   -308.05659    675.67716    5045.4593 
   39700     297.8224   -575.94114    149.27982   -306.81481    710.69525    5105.3485 
   39800    304.51678   -591.35987    154.82336   -313.99611    731.27809    4802.8531 
   39900    309.77489   -593.33578    149.91914   -318.76032    1097.1565    4633.7107 
   40000    289.72746    -590.8813    157.82484   -316.46742    74.309017    4729.2742 
   40100    260.58033    -583.9172     166.4588   -312.59844   -412.79375    4910.0892 
   40200    300.33533   -574.50285    150.36292   -303.28219    778.89437    5198.4199 
   40300    308.92398   -564.15742    148.75734   -291.08618    688.71421    5485.7091 
   40400      304.231   -574.27978    159.73551   -292.11887   -313.62568    5300.3027 
   40500    291.61679   -580.83834    162.48313   -301.00588   -318.85258    5106.1016 
   40600    299.32966   -585.03698    159.03389   -305.55003    -782.7162    5082.4551 
   40700    295.84831   -581.81983    155.98722   -306.78049   -821.75895    5171.8942 
   40800    288.71752   -574.75565    154.17236   -304.40066   -855.75008    5254.2794 
   40900     274.9983   -587.34333    163.74009   -312.94135   -693.42682    4907.4314 
   41000    315.14467    -592.7315    147.38886   -318.52548   -151.02668    4789.3746 
   41100    284.55262   -578.95619     152.7354   -311.71416    94.176293    5110.5639 
   41200    280.39467   -584.39516    156.26359   -315.29813   -965.61469    4933.0782 
   41300    291.99651    -578.7423    155.60609   -305.63408   -953.31354    5144.3415 
   41400    300.92285   -589.42599    156.16063   -312.17118   -1953.8875    4938.8132 
   41500    304.10662   -584.95489    152.64527   -309.93427   -1332.1797    5005.6039 
   41600    284.33625   -591.57162    158.34062   -318.81143    512.81884    4775.7442 
   41700    315.86599   -595.53121     148.0731   -320.35068   -1164.7931    4706.6914 
   41800    297.72512   -586.36595     153.8326   -312.72597   -594.54663    4830.5686 
   41900    293.59621   -582.83335    154.71232   -309.97517   -1254.9019    4922.5139 
   42000    317.61744   -583.40945    148.99586   -306.60136     122.4271    4976.0935 
   42100    309.02537   -575.02106    152.80212   -297.86424    -1884.079    5233.8597 
   42200    313.38494   -579.79843    151.58658   -302.10282     273.4296     5128.515 
   42300    290.83138    -568.7291    157.56247   -294.13336   -1873.5747    5459.7759 
   42400    301.33579   -589.50799    157.52871   -310.71894   -444.23032    4913.2648 
   42500    304.80656    -591.7936    150.51356   -318.62304   -1984.3486    4777.0506 
   42600    296.26364    -594.0778    153.85275   -321.00579      71.5789    4725.6963 
   42700     303.9315   -582.24893    150.34504   -309.59901   -1013.0108    5008.0927 
   42800    321.78129   -577.42818    147.74238     -300.198   -137.64954    5342.9789 
   42900    304.10401     -571.893    148.07077   -301.44793   -141.33132    5362.4646 
   43000    299.05528   -579.00337    155.41187   -303.24886    836.93488    5217.8387 
   43100    295.59691   -568.47981    153.28898   -296.23987    172.22771    5454.8349 
   43200    332.49755   -589.21802    142.63513   -312.78276   -269.26773    4881.0036 
   43300     326.1392   -589.36813     143.8525   -314.27416   -794.26893    4886.7314 
   43400    300.63033     -578.292    152.21643   -305.09911    201.54458    5210.3033 
   43500    319.71195    -592.7768    148.58731   -315.53441     -165.464    4885.1208 
   43600    278.65827   -582.59983    158.28451   -312.18063   -162.77622    5023.5134 
   43700    317.83494   -598.62607    143.32707   -327.39924   -425.49934    4627.4989 
   43800     312.2321   -592.73502    138.70999   -328.37991    43.187048    4596.7433 
   43900    306.52296   -587.38981    149.76562   -314.27648   -1316.1761    4786.9929 
   44000    305.57267   -598.99077    155.37498   -320.65049   -231.37962    4578.7204 
   44100    276.42748   -575.87783    160.61352    -304.0273   -1014.4242    5074.4715 
   44200    315.61433    -585.5539    149.23019   -309.31755   -904.37307    4887.6537 
   44300    319.89897   -578.57067    145.58812   -304.25221   -982.36789    5022.8533 
   44400    293.56401   -596.46391    156.26053   -322.07047   -48.979937     4544.938 
   44500    282.34239   -598.05483    161.26958   -323.16802   -1663.9145     4515.674 
   44600    315.40853   -605.75876    145.41841   -333.41701    39.312199    4251.0908 
   44700    307.93908   -599.40006      149.676   -325.80648    1192.0545    4350.5216 
   44800    293.19641   -596.56241    158.51604   -320.06139    664.53737    4469.0873 
   44900    297.82808   -579.37838    155.51089   -304.01869   -1323.4854    4963.3071 
   45000    289.16853   -577.53011    157.85286   -303.31313   -362.75887    4958.9399 
   45100    285.55136   -585.22252    164.55466   -305.75932   -307.42698    4836.7602 
   45200    312.03898   -597.55851    157.66134   -314.32976   -184.18373    4732.7822 
   45300    295.76797   -578.10267    148.47128   -310.61159   -78.449748     5014.017 
   45400     282.8267   -575.73183    156.51254   -305.40718   -129.70851    5105.0085 
   45500    300.66059   -571.22053    152.50917   -297.72273   -350.20791    5216.2769 
   45600    299.44158   -572.61388    152.67739    -299.4384   -126.71708    5067.9224 
   45700    304.45279    -577.0412    155.52159   -299.00496    87.590027    5030.4071 
   45800     301.5398   -578.80074    155.03503   -302.42327   -742.96509    4942.5959 
   45900    307.96525   -589.43981    154.03417   -311.47754    279.72987     4779.927 
   46000    301.12052   -581.24473     152.2911   -307.77992   -426.83573    4981.3066 
   46100      300.462   -581.66668    155.39466    -305.3633    1125.9812    5077.7435 
   46200    301.74682   -576.71368    153.71248   -301.57547    170.24219    5197.5224 
   46300    292.97686   -563.83346    150.57954   -295.35728    1500.7126    5434.1353 
   46400    273.60253   -573.57703    162.93985   -300.53696   -608.37808    5159.1382 
   46500    285.62071   -567.80426    158.27244   -294.59537    382.81735    5376.2927 
   46600    297.95387   -562.37544    151.06633   -291.40969   -418.09308    5472.8029 
   46700    303.98533   -577.50598    154.03969   -301.13975    406.97028    5020.7945 
   46800    289.34865   -579.40729    159.15489    -303.8158    277.78177    4953.4839 
   46900     295.5895   -576.38409    153.70014   -303.73597    1118.9564    5002.9041 
   47000    326.46895   -591.63608    144.75088   -315.51104    356.14265    4697.0304 
   47100    312.27127   -574.00502    147.60855   -300.73559    663.40082    5139.8216 
   47200    307.83673   -580.12897    151.61116   -304.64143     -924.029    4990.2485 
   47300    307.68527   -578.27758    149.84848   -304.61367    2208.2751    5001.6503 
   47400    292.33788   -553.32227     146.9689   -288.71387    156.29663     5655.851 
   47500    306.23547   -574.48679      150.896   -300.35877    1610.3961    5128.9429 
   47600    330.48737   -570.34661     139.8613    -297.4941    651.02755    5287.4828 
   47700    290.13628   -562.69998    153.14925   -292.79718    1029.3111     5452.676 
   47800    295.07699   -569.77298     157.2559   -293.77534    942.39636    5334.5751 
   47900    298.88202   -554.74705    150.42327   -284.05086     1503.129    5744.6333 
   48000    307.92553   -568.94428    147.17166   -297.86051    1427.5712    5226.8589 
   48100    293.39752   -566.64273    154.51911   -294.05771    278.26062    5351.9726 
   48200    316.27696   -573.45268    148.31005   -297.86983    1337.6261    5234.0955 
   48300    299.80819   -575.34466    150.94548   -303.75356    2326.3894    5161.6662 
   48400    304.06244   -555.82323    146.51681   -286.94885   -338.35526    5802.3548 
   48500    321.40284   -577.65603    148.11982   -300.20071   -333.78008    5235.1156 
   48600    274.17799   -561.30872    156.60599   -294.37094   -613.92025     5457.279 
   48700     279.2636   -562.38547    157.78816   -292.21903   -164.94553    5397.3061 
   48800    307.55553   -563.90588    157.30998   -282.83268   -807.97996    5590.2095 
   48900    306.77806    -560.5606    154.12527   -282.98497    488.33267      5594.86 
   49000    313.28779   -569.63807     151.8074   -291.76073   -1227.1645    5369.6203 
   49100    274.36567   -562.85159    162.46229   -289.98198   -682.59967    5426.4356 
   49200    281.96864    -571.7094     163.1219   -295.12068    205.10393    5252.1876 
   49300    288.03568   -562.47076    158.30112   -288.26138    537.72364     5448.992 
   49400    289.00841   -555.56634    159.05007   -280.21659   -1133.0302     5787.236 
   49500    302.93684   -549.55231    151.75433   -275.89335   -62.367853    5948.1454 
   49600    295.23157    -548.1678    156.28582   -273.07804    368.11916    6092.4154 
   49700    281.42261   -544.06264    159.75825    -271.0573   -178.35963    6112.9055 
   49800    294.71136   -548.13226     154.8678   -274.66985   -327.42564    5877.5527 
   49900    283.01539   -560.66698    161.78425   -284.99469   -1617.2656     5450.653 
   50000    287.34463   -564.88194    161.80217    -287.4496    -1067.206    5382.0024 
   50100    305.13095   -563.75054    156.37719   -284.58579   -387.21409    5512.6859 
   50200    290.34801   -555.76402    153.72649   -285.19877    599.47349     5625.053 
   50300    311.90209   -566.78958    152.31799   -288.95927   -31.904664    5419.7353 
   50400    315.54341   -563.93488    146.42624   -290.53103   -577.32369     5461.633 
   50500    301.32014   -564.90597    150.28154   -293.37039    -857.8697    5317.8602 
   50600    302.37851   -574.30625    154.69951    -297.9268   -906.25299     5104.235 
   50700    302.23919    -574.2916    153.56388   -299.10384   -188.80642    5066.8064 
   50800    290.05739   -586.50507    162.03304   -307.75023    534.87361    4760.3964 
   50900    355.23214    -576.1786    132.85331   -300.37655    252.77319    4948.6169 
   51000    300.54593   -587.11883    160.23605   -305.94028   -415.96028    4799.4868 
   51100     307.3591   -576.34134    151.58478   -301.07238   -695.88472    4962.3682 
   51200     352.7825   -588.15564    136.77958   -309.41309    511.13426    4695.7903 
   51300    298.25857   -592.07722    160.01594   -312.03924   -98.367007     4623.084 
   51400    318.46362   -590.71242    148.74544   -313.81424     1201.636    4591.2992 
   51500    297.21269    -590.7094      157.183   -313.92523   -356.77807    4598.4873 
   51600    283.55808   -583.23964    163.83472    -305.2985    183.49256    4793.4795 
   51700    295.43723   -578.36637    161.54731   -297.93235   -886.55955    5038.7886 
   51800    308.10015   -569.27602    152.36771   -292.92593    848.77827    5278.2075 
   51900     280.1844   -572.44364    163.04589   -296.64893    152.92966    5180.6699 
   52000    285.31155   -566.11707    159.60518   -291.69985    1243.4094    5343.8623 
   52100     300.8042   -566.53267    156.16129   -289.32496    1097.1197    5401.8832 
   52200    296.93555    -558.6832    154.16045   -285.03311   -77.778578    5566.5601 
   52300    321.84261   -568.46784    149.52073   -289.43463   -551.88443     5433.301 
   52400    300.30471   -566.72295    154.78381   -291.09371    601.10079    5495.7537 
   52500     319.7899   -559.88506    138.57734   -292.62127    1330.0304    5555.1802 
   52600    312.67809   -566.11679    144.18002   -296.11218    966.58847    5367.9398 
   52700    323.21202   -567.02553    140.99861   -295.96337    1154.8705    5403.6135 
   52800    312.71212   -564.37124    141.32081   -297.21215    1562.5494    5287.7882 
   52900    314.73229     -563.838    146.40073   -290.78605    1407.8201    5353.3506 
   53000     317.5946   -568.05662    149.26933   -290.98426    -111.2246    5359.6369 
   53100    300.22596   -562.41387     148.5528   -293.04733    1391.3895    5339.4417 
   53200    313.44442   -565.34697    151.49028   -287.72372    448.72057    5481.2006 
   53300    327.47487   -579.49541    146.57235   -301.14411    1300.4246    5192.8364 
   53400     294.6121   -588.47466     153.4609    -316.4591   -345.58531    4951.4051 
   53500    291.04353   -581.94455     144.3329   -320.49301   -591.54777    4925.2094 
   53600    283.87847   -587.64856    149.89669   -323.51652   -1619.2241     4700.738 
   53700    301.10826   -581.22585    151.33958   -308.71748    234.10314    4984.7932 
   53800    297.21536   -572.74286    152.90082    -300.2398   -189.18528    5167.8061 
   53900    310.86633   -568.19495    148.69193    -294.4075     47.27019    5330.5501 
   54000    306.50221   -570.31242    151.17195   -295.80112   -342.05629    5291.2921 
   54100    304.32589   -579.00858    153.95831   -302.58669    322.98122    5125.3454 
   54200    297.61911   -563.99876    149.47749   -294.75656    -1335.784    5511.5701 
   54300    280.61497   -567.50203    156.74942   -297.83052   -222.05843    5312.7287 
   54400    294.35139   -551.77931    149.00039   -284.32917   -665.91157    5704.3759 
   54500    309.14036   -553.44035    147.09801   -281.94136   -436.10395    5704.5758 
   54600    287.05231   -554.11489    156.50261   -282.09974    -385.1663    5665.1255 
   54700    309.46495   -554.88004    150.67326   -279.67519   -539.00829    5721.4457 
   54800    306.84263   -571.51198    150.63064     -297.405   -614.80495    5183.5811 
   54900    302.78404   -578.07848    155.71876   -300.51659    -1741.723    5179.5265 
   55000    306.73198   -583.76677     152.5462   -307.78875    1349.8302    4972.3459 
   55100    300.51732   -578.75842    152.63489   -305.19255    94.736365     5090.849 
   55200    309.04802   -559.60715    143.17976   -292.06358    632.18347    5551.9723 
   55300    296.68469    -566.8585    153.42674   -294.04307   -529.04845    5389.4854 
   55400    299.06466   -563.08447    153.33963   -289.39842     197.9056    5566.6216 
   55500     286.4753   -568.00761    158.14062   -294.58665   -139.35322    5491.4535 
   55600    270.77526   -553.78544     154.2131   -290.60985    578.83598    5732.7709 
   55700     320.7222   -568.54898    142.16998   -297.31738    1012.4081    5381.0507 
   55800    304.56956   -555.55237    145.60057   -287.39015    635.78856    5743.9124 
   55900    268.99041   -551.07422    160.69472   -282.13524   -318.81591    5846.4754 
   56000    314.59401   -549.15913    145.81002   -276.75353    504.91033    5952.7325 
   56100    301.24483   -546.62842    151.16539   -274.23929    40.030659    6052.5085 
   56200    284.41484   -550.49219    156.73088   -279.31012   -159.98516    5917.4043 
   56300    293.34032   -559.38401    153.59978   -287.74134   -765.97006    5559.6027 
   56400    288.91928   -566.67154    153.22234   -297.18538     1690.548    5220.5339 
   56500    314.99824   -565.01179     146.8586   -291.39495   -1599.1269    5387.7652 
   56600    316.51901   -568.67979    145.11223   -296.19735    435.66519    5208.3926 
   56700    316.87928   -568.83243    148.65879   -292.65846   -880.27178    5370.6191 
   56800    309.59266   -575.22768    146.44124   -304.20346     2504.768    5089.8676 
   56900    270.44917   -570.75926    157.96123   -303.96676    145.63948    5105.7728 
   57000    267.60803   -569.27436    158.74554   -302.84085    587.38043    5063.8622 
   57100    316.15865   -567.47676    143.45424   -296.79733   -416.20798    5070.4043 
   57200    327.60195   -581.03266    141.64915   -307.55342    1654.6266    4657.4491 
   57300    295.05047   -586.14743    158.36363   -309.05273   -197.01985    4616.2149 
   57400    281.04993   -589.76738    161.40735   -315.26291    1547.8286    4541.0517 
   57500    300.64399   -575.27761    152.10275   -302.19291   -1020.6338     5018.878 
   57600     312.2135   -584.36675    149.45236   -309.27676    750.87399     4837.816 
   57700    276.00835   -581.38372    161.97417   -308.34121     570.6552    4873.1606 
   57800    294.23726   -583.78764      156.074   -309.30981    859.49937    4864.3627 
   57900    322.90902   -569.67893     139.7726   -299.96471   -314.63958    5266.6804 
   58000    275.66274    -568.8767    155.74787   -302.19957     599.9793    5138.5221 
   58100    300.02886   -581.23165    152.99574   -307.50149    475.65888    4871.2711 
   58200    298.09322   -577.82339     149.6614   -308.20649    1652.0033    4843.1109 
   58300    294.01626   -583.88059    154.80834   -310.75736   -764.90025     4791.452 
   58400      267.036    -567.5071    159.06195   -300.98736    1400.8453    5152.2124 
   58500    298.52437   -562.47236    146.87068   -295.47268   -561.87375    5337.7377 
   58600     318.0231   -548.72761    140.36496   -280.38719    241.27609    5832.7165 
   58700    277.10778   -559.85314    164.91405   -283.42833    -653.2055    5588.1962 
   58800     302.6163   -564.36833    153.48802   -289.10468    960.04164    5467.2185 
   58900    290.64624   -574.12579    160.13931   -297.02772   -856.84422    5279.8447 
   59000    306.25679    -576.8854    151.91103   -301.73377    648.59752    5167.3388 
   59100    279.79957    -574.5244    155.68231   -306.24812   -1679.0925    5046.9083 
   59200    271.35098   -576.02184    159.60407    -307.2236    1190.5159    4975.9891 
   59300     302.7705   -565.79604    147.78021   -296.17815   -407.75903     5310.929 
   59400    302.95859    -569.6097    155.60269   -292.09364   -1181.6981    5335.3835 
   59500    308.66052   -584.84595    153.70243   -306.93564    586.90034    4910.1512 
   59600    305.21543   -574.90315    146.79366   -305.28794   -1109.0408    5142.8008 
   59700    299.75732   -576.43768    144.17341   -311.63912   -504.93069    4997.6356 
   59800    272.19239   -579.75014    158.84012   -311.37726   -325.79705    4981.6026 
   59900    301.33869   -577.43489    147.81558    -308.3578   -370.32899    5025.1651 
   60000    328.30603   -578.54929    137.89857   -308.53729   -952.20404    5011.0001 
   60100    309.90723    -582.5713    147.77061   -310.09112   -96.434911    4967.8352 
   60200    309.59536   -574.26449    139.41501   -310.26542      439.125    5102.6411 
   60300    305.18201   -576.66148    148.41817   -305.43522   -553.85076    5215.1717 
   60400    306.89552   -575.95981    145.05055   -307.41164    24.392629    5087.2821 
   60500    303.39552   -581.40169    149.92954   -309.38296    40.293182    5004.5089 
   60600    307.66209   -585.54422    145.68476   -316.05335    667.35887    4779.7592 
   60700    311.23857    -587.3562     147.7352   -314.37568    161.80371    4757.5134 
   60800     302.3782    -587.3952    151.60812   -314.10726    626.82619    4744.9852 
   60900    292.56481    -582.9691    154.02441   -311.21387    1129.6701    4841.7128 
   61000    296.06477    -563.6644    146.79973   -297.72544    618.12398    5304.5678 
   61100    282.07229   -570.00593    159.04575   -297.45165    378.98705    5255.5759 
   61200    284.27754   -561.01881    157.21927    -289.4036    229.56152    5596.2493 
   61300    295.47746    -567.9933    153.50389   -295.58652    1330.1316    5346.1997 
   61400    279.81601   -561.75483    157.41237   -291.74188    351.52488    5483.2334 
   61500    311.93748   -574.54198    150.87575   -298.13967   -301.10322    5248.7313 
   61600      298.971   -568.77321    150.62005   -297.84443    1246.4939    5314.4006 
   61700    316.73407   -576.06013    149.26487   -299.33851    165.74346    5279.3845 
   61800     253.7393   -555.04313    162.86715   -290.06891   -579.49259    5612.8568 
   61900     298.1416   -574.29394    152.10997     -302.209   -348.05595    5167.0897 
   62000    324.07108   -567.02761     138.8244   -297.79398    746.35612    5290.3917 
   62100    273.49015    -572.1238    162.66316   -299.40564    96.993112    5137.8941 
   62200    299.11038   -575.96104    156.91457   -298.68166    649.56155    5121.0034 
   62300    281.50061   -564.33048     157.0612   -293.99081    975.89482    5374.8027 
   62400    330.10111   -574.50234    140.72555   -300.94102   -223.04354    5173.6538 
   62500    278.49144   -563.90782    154.89484   -296.94542    375.86646    5335.4996 
   62600    312.95289   -578.02891    144.45375   -307.63999    276.20304    5024.4135 
   62700    307.20742   -575.80375    144.58235   -307.59825    138.97766    5088.4486 
   62800    264.59444   -584.10828    162.26024   -315.37276    -1501.326    4854.0065 
   62900    294.65401    -584.7458    152.20741   -313.96686   -1036.3298    4884.3566 
   63000    295.01952   -587.48583    150.68482    -318.0824   -1603.6862    4764.2982 
   63100    310.40689   -577.80115    140.58607   -312.30444   -496.10801    4921.9546 
   63200    301.60185    -580.1843    150.64062   -308.17628   -865.55633    4998.8444 
   63300    312.09776   -572.69028    141.39557   -305.70365    1042.7349    5109.8743 
   63400    275.46809   -571.30905    158.53881    -301.9193    273.34693    5186.2915 
   63500    297.39723   -578.43223    151.49362   -307.26319   -30.358418    5038.7728 
   63600    282.91305   -568.66715    151.82955   -302.99074    243.14621    5207.6504 
   63700    293.47528   -582.94643    152.49505   -312.35418     263.2236    4870.9744 
   63800    299.97299   -592.76105    150.37461   -321.67451   -13.982324    4636.6047 
   63900     279.9429   -592.60545    154.98399   -324.96982    1891.1653    4573.0755 
   64000    293.23215   -606.15034    152.93936   -335.21161    1331.0528    4325.0828 
   64100    290.11863   -595.87301    153.34583   -325.78073   -106.22253    4615.5468 
   64200    264.86941   -571.62318    153.35706    -311.6802    469.02342    4996.8455 
   64300     298.6851    -584.3657    148.41175   -315.76027   -474.55871    4749.5607 
   64400    305.50947   -585.17592    145.77205     -316.464    1312.5053    4704.0864 
   64500    321.04851   -589.11372    144.73969    -315.1811   -1108.9456    4676.1613 
   64600    319.83301   -582.30454    144.81844   -308.78231    1021.1249    4831.2883 
   64700    287.99578   -592.62673    160.13356   -316.60097    774.90325    4635.0554 
   64800    288.03683   -583.38343    154.32196   -313.15275     686.5816    4758.9241 
   64900    290.85867   -579.31981    154.31334   -307.96222    465.98654    4873.8184 
   65000    323.01987     -560.923    139.36288    -291.5739    1059.9527    5336.2993 
   65100    318.31619   -567.68296    146.42892   -293.16063    945.80344    5240.7886 
   65200    323.38778   -557.90352    143.02752   -284.74173   -639.02355    5623.6638 
   65300    304.72949    -563.4558    150.49649   -290.33331     1371.485    5500.1483 
   65400    298.90206   -563.38935     148.1011   -295.00726   -223.10586    5405.9446 
   65500    315.33766   -568.30633    142.21713   -299.19437    440.41238    5321.5626 
   65600    291.92837   -568.10826    153.29494   -297.33861   -1902.7296    5401.2455 
   65700    304.98048   -567.26127    143.74978   -300.78449    1195.7387    5294.0861 
   65800    281.45344   -574.62368    152.41299   -308.95119   -74.179088    4997.0243 
   65900    313.39025   -567.18567    140.09474   -300.97976   -26.406345    5213.1027 
   66000    308.05764   -583.46686    148.75198    -310.7496   -308.11918    4866.2409 
   66100    303.89945   -577.40105    140.80077    -314.3083    1488.4798    4892.6505 
   66200    289.79912     -580.828    144.84386   -319.36626   -697.76874    4737.1368 
   66300    302.03521   -583.67106    143.86893   -318.26034   -153.52784    4694.3479 
   66400    291.90441   -585.89479     150.1401   -318.28962   -366.03071    4647.7734 
   66500    307.89181   -582.29365    148.76932   -309.62579    297.71037    4851.0175 
   66600    310.82625   -563.02841    139.95991    -297.9891    238.38104    5311.3662 
   66700     303.4921   -571.75058    148.50565   -301.11687    228.84131    5217.2783 
   66800    284.78425   -555.53095     150.8726    -290.0585    467.66064    5650.0652 
   66900      299.432   -551.08577    144.00921   -286.58232    321.43524    5697.9301 
   67000    278.94036   -551.21878    159.14584   -279.82473    233.27758    5865.8998 
   67100     293.2185   -546.64145    149.06409   -279.58349   -239.68543    5866.9431 
   67200     314.4282   -562.53779    147.97093   -288.03802    605.22095    5495.3184 
   67300    311.92212   -577.58981    147.34217   -304.72726    -9.148196     5101.272 
   67400    270.78494   -573.56149    155.15588   -309.43922     2219.186    5048.5684 
   67500    287.59119   -566.53393    148.02285   -302.78169   -544.30846      5296.39 
   67600    293.97244   -570.67351      149.207   -303.16925    1338.8204    5195.8106 
   67700    325.91224    -563.4974    134.12636   -298.22091    286.33963    5373.0715 
   67800    302.23456   -581.32045    143.00174    -316.6967    1799.9035    4742.6856 
   67900     288.6248   -593.80405    149.36279   -328.29594   -653.11485    4425.1596 
   68000     281.0141   -580.41516    151.09131   -316.24114    786.50983    4620.9428 
   68100    303.12915   -588.90684    155.41116   -311.51367   -716.40061    4630.3177 
   68200    296.85963   -573.33616     149.0716   -304.80547    714.81016    4885.4422 
   68300    300.44929    -581.9336    153.56423   -307.46577   -543.28758    4832.5611 
   68400    317.17393    -586.8593    148.58526   -310.64028    189.04135    4830.4303 
   68500    283.76993   -577.53832    149.38796   -313.95869    17.373498    4865.7746 
   68600    300.99868   -574.96716    141.29731   -312.54517    1388.1277    4931.3288 
   68700    309.57689   -574.09312    144.78089    -304.7356   -1877.9193    5130.4549 
   68800    314.61038   -563.71842    138.91449   -298.20177    -187.1782    5291.4503 
   68900     320.1583   -570.71693    142.20842   -299.67381   -347.64445     5147.495 
   69000    295.64361   -581.03813    154.93312   -307.13525     2302.203     4899.388 
   69100     278.8883   -570.23716    157.79845   -300.21145    924.11747    5174.8848 
   69200    296.82252   -560.42441    145.09759   -295.88266    712.67306    5387.7721 
   69300    296.08154   -553.78108    151.13859    -283.4965     -679.467    5762.4701 
   69400    318.16105    -568.3157    145.13855   -295.14617    1083.2063    5335.3102 
   69500    303.68504   -564.38106    146.97055   -295.20481    323.23193    5424.0182 
   69600    283.46824   -563.01191    154.53985   -294.40178    992.82965    5458.2939 
   69700     298.2468   -568.61222    149.30053   -299.29439    715.94945    5300.2519 
   69800    295.09607     -563.367    146.07713   -298.54045    91.348706    5368.2722 
   69900    298.72614   -566.55749      149.628    -296.7193   -1191.2507     5355.786 
   70000    306.20123   -566.12021    145.71836   -297.18361    108.49819    5337.9844 
   70100    307.76931   -561.50847    141.14778   -296.51144    352.66547    5438.7017 
   70200    309.30703   -568.81641    145.96825   -298.38012   -47.980723     5322.089 
   70300    310.97419    -576.6091    149.36949   -302.10069    316.29894    5193.2675 
   70400    291.06038   -557.06852    148.90015   -291.04295   -336.29519    5690.4752 
   70500    284.84598   -557.07689    155.94815   -286.50405   -529.37297     5751.173 
   70600    311.32931   -561.70459    148.99869   -287.42407   -733.94127    5688.6499 
   70700    322.49268   -563.52499    139.36445   -294.38647    635.01979    5495.8312 
   70800    286.84171   -553.41711    147.32734   -290.66198    -27.53968    5577.0457 
   70900    290.71552   -555.66886    152.40564   -286.27658    334.93533    5599.5027 
   71000    281.74415   -545.99997     156.1655   -276.45799   -199.10618    5935.3919 
   71100     285.7315   -540.08329    154.39009   -270.71218   -790.77529    6039.2181 
   71200    306.50274    -545.9234    153.89665   -268.68718   -112.70538    6051.4647 
   71300     293.5203   -546.28996    157.23478   -270.93986   -529.62673    6076.2445 
   71400    301.81253   -542.22091    149.82392    -270.9448    371.47647    6161.3451 
   71500    323.99732   -566.04479    148.89836   -286.76688   -18.193485    5541.2168 
   71600    299.54121   -566.96833    152.04126   -294.38888    -440.9997     5460.936 
   71700    299.88878   -584.71924     150.3023   -313.73889   -650.66602    4984.1651 
   71800    288.76693   -575.13193    147.84527   -311.08415    202.90005    5171.3305 
   71900    311.41106   -576.91128    137.99641   -313.60015   -430.10929    5034.8835 
   72000    299.74578   -564.43704    141.86872   -301.94782   -905.32173    5311.2879 
   72100    297.27902   -574.41738    148.97511   -305.81441    54.580587    5057.1067 
   72200    302.99692   -572.87188     146.7019   -304.24119    895.56571     5038.353 
   72300    321.19711   -571.15856    142.85602   -299.04982    308.82501    5116.3421 
   72400     314.8181   -581.84382    149.78123   -305.37684    481.10036    4896.5423 
   72500    283.27514   -579.33084    159.17707    -306.1612    199.67696    4993.6357 
   72600    278.87135   -576.06778    161.00705   -302.84029   -1359.8659    5263.2044 
   72700    314.97318    -565.0779    136.32473   -302.00501   -582.75898    5410.8295 
   72800     285.2048   -555.72524    149.31469   -291.64148    928.43634    5762.9476 
   72900    293.33107   -555.63551    147.91959   -289.67675     100.6068    5793.9798 
   73000    281.78161   -547.08447    150.57701   -283.11591    287.74138    5888.3588 
   73100    283.98749   -549.72801    156.01798   -279.43081   -56.039708    5774.9381 
   73200    263.04649    -543.8044    163.23348   -274.71854    248.15356    5823.2221 
   73300    303.25446   -560.89511    157.12542   -281.73726   -941.10539    5540.4353 
   73400    306.68552   -567.46151    152.32102   -291.72737    385.14806    5313.1634 
   73500    307.71487   -568.27349    146.51149   -297.93466    41.696104    5266.8566 
   73600    303.92728   -568.44642    148.63397   -297.50926   -353.30796    5348.1461 
   73700    291.99729   -578.44064    156.05055   -304.88765   -973.57124     5078.752 
   73800    281.02003   -575.64896     158.5729   -303.99096    362.64428    5165.8414 
   73900     311.0232   -583.09681    146.03433   -311.90383   -449.18402    4961.1808 
   74000    285.09366   -568.01799     150.0121   -303.28153   -1112.4579    5343.1935 
   74100    292.24535   -560.67505    147.62437   -295.44842    102.25094    5583.9049 
   74200    291.80355   -566.97065    150.62923   -298.91694    385.01294    5481.3913 
   74300    290.59328   -561.19692    150.77885   -293.48062   -417.18257    5681.2647 
   74400    281.24203    -562.1841    152.36675   -296.64293   -253.88122    5540.4867 
   74500    313.78641   -566.06638    145.55099    -294.2448    184.78923    5562.8663 
   74600    296.94219   -560.80185    149.10698   -292.20256   -1257.4917    5685.2592 
   74700    275.53649   -549.90557    152.42038   -286.60673   -520.03563    5904.9964 
   74800    290.09875   -561.36347    151.04641   -293.57861   -492.02334    5555.3537 
   74900    262.62284   -570.76831    167.99034   -297.09608   -733.17684    5324.4933 
   75000    279.92356   -555.89661    153.43372   -289.81903   -809.48294     5549.113 
   75100    316.58793   -571.16292    145.53082   -298.23416   -220.82605    5136.6236 
   75200    300.30717   -566.11952    154.47191    -290.8012   -1029.9124    5353.1165 
   75300    316.94465   -562.87527    148.32289   -287.01088     51.86064    5540.3878 
   75400    332.22628   -565.88641    141.45532   -290.74013   -1315.9624    5518.6317 
   75500    297.85562   -561.96529    152.69316   -289.41225   -701.43772    5669.4073 
   75600     303.7772   -551.33686    144.12099   -284.97309   -947.85982    5920.3724 
   75700    328.79157   -558.23639    139.40037   -286.52722   -402.36689    5789.1825 
   75800    311.30702   -556.51672    147.31382   -283.93005    -1001.068    5881.5406 
   75900    306.99171   -557.59948    145.18813   -288.87501   -792.29714    5749.8858 
   76000    294.68485   -546.61982    147.15073   -280.88515   -435.58939    6060.1054 
   76100    301.81324   -566.10272    157.06357   -287.58668   -146.65777      5637.79 
   76200    297.62158   -560.19327    149.36559   -291.06197   -554.38374    5614.5004 
   76300    282.43745   -573.74404    157.92371   -302.16486   -628.28706    5291.3594 
   76400     310.1098   -565.56155    141.74716    -299.0233   -465.22778    5537.3139 
   76500    289.25888   -553.55955    141.74829   -295.41078   -128.75803    5665.4955 
   76600    307.76049      -564.96    146.75849   -294.35581   -482.16338    5469.1109 
   76700     284.4703   -562.05842    158.37316   -289.21175   -171.00045    5524.7345 
   76800    306.69666   -564.90424    151.40039   -290.08624   -943.56909     5557.023 
   76900    295.26896   -570.22979    152.04161   -299.36918   -852.05218    5398.5216 
   77000    299.03298   -567.57758    148.24421    -298.9997   -387.89607    5456.1348 
   77100    303.68502   -565.44344    144.15077   -299.08697    341.04588    5451.9594 
   77200     290.4119    -566.1191    153.93958   -295.31506   -908.53513    5507.4662 
   77300     292.7291   -558.73074    150.87111    -290.0627   -1118.0404    5663.5529 
   77400    328.13436   -562.53718    138.06374    -292.4291   -1057.5638    5548.0484 
   77500    298.17077    -550.1852    146.25153   -283.94696   -237.98489    5929.2475 
   77600    324.38836   -563.18503    145.66971   -286.97841   -617.00556    5714.5115 
   77700    285.02076   -563.40764    156.51932   -292.19331    905.59707    5555.4098 
   77800    295.74109   -567.10952    153.16931   -294.93123    -1601.493     5556.353 
   77900    289.91643    -565.8267    150.52426   -298.63735   -987.69231    5422.5079 
   78000    302.92918   -574.09696    149.52555   -302.66987   -623.01067    5232.3976 
   78100    303.88987   -570.70861    145.16653   -303.25395    993.55852    5191.5805 
   78200    278.95215   -572.70606    159.79545   -300.65764   -500.30088    5216.0903 
   78300    309.57017   -568.31421    147.54025   -296.20002    900.07533    5414.7601 
   78400    294.54787   -575.37674    150.48599   -306.36193    865.26003    5186.5794 
   78500    274.60098   -563.80682    153.85067   -299.45414    8.1844222    5514.1501 
   78600    302.22775   -575.41107    151.15647   -302.63532   -550.33544    5339.3807 
   78700    305.19652    -565.8735     143.0847   -299.97487    866.06251     5480.327 
   78800    295.80698   -578.13204    148.77548   -310.32106    1723.8724    5106.5232 
   78900    295.61056    -571.3314     148.0362   -304.33875    642.80767     5293.524 
   79000     316.6314   -581.88025    141.00021    -313.4646    595.73196    4968.6572 
   79100    308.30163    -578.1189    143.58438   -310.47106    576.67305    5028.7102 
   79200    297.31738   -590.97077    153.74914   -317.57833   -234.58378    4786.7337 
   79300    282.29744   -581.44404    154.76276   -313.08215   -217.77892    4980.2595 
   79400    290.14523   -569.42726    150.35334   -302.31676   -332.96681    5329.3091 
   79500    276.64072   -565.82185    157.40124    -297.0978   -867.64309    5540.9007 
   79600    302.32251   -559.04946    148.13971   -289.25234   -1478.0658     5865.158 
   79700     303.5573    -556.8751    147.66712   -287.05368   -588.74502    5979.5935 
   79800    315.32254   -551.28445    141.51568   -282.88003   -190.64803     6107.643 
   79900    282.70499   -545.87354    151.90867   -280.20174    290.75935    6126.9165 
   80000    278.09681   -553.60934    158.07225   -283.62833   -435.34865    5887.3657 
   80100    303.65526   -560.28585    151.27099   -286.82115   -251.11646    5736.9813 
   80200    291.99234   -558.78515    157.12676   -284.15795    32.497721    5889.1091 
   80300    311.46051   -564.81994    149.52257   -289.96275    448.66269    5743.1955 
   80400      291.077    -568.4195    154.57913   -296.70827   -671.22216    5552.5358 
   80500    303.84475   -573.40058    152.29927   -298.83134   -1031.2727    5467.4827 
   80600    298.42901   -572.23896    150.64607   -301.50226   -673.80455    5433.6483 
   80700    300.03532   -565.03044    144.54434   -299.74909    500.60368    5544.2489 
   80800    283.28521   -556.45692    151.11685   -291.34345   -821.15304    5765.7437 
   80900    306.04652   -566.49232    151.77457   -291.56176   -233.79085    5577.3064 
   81000    310.19864   -577.03614    151.61606   -300.59325    -450.9242    5268.7145 
   81100    297.50017   -571.44917    146.75982    -304.9725     623.4064    5245.6554 
   81200     330.8751   -562.74402    134.23031   -295.36647   -72.667212    5573.6408 
   81300    309.03939   -569.92535    149.61546   -295.94955    411.70573    5545.1118 
   81400     294.6866   -559.26076     153.0551   -287.62102   -693.37001    5941.6464 
   81500     272.9704   -555.08978    156.45323   -288.79071    581.95551    5985.3696 
   81600    289.42602   -562.47263    153.63261   -292.37229   -452.73943    5842.5605 
   81700    294.32836   -558.13807    150.96797   -288.72961    708.19224    6042.7084 
   81800    279.58135   -565.45055    157.26073   -295.68367    412.89173     5783.868 
   81900    299.77428   -570.47893    148.38074   -301.46621    877.04532    5530.4403 
   82000    291.28171   -572.70846    152.30101   -303.19296      683.257    5388.4842 
   82100    292.93382   -573.58635    150.37769   -305.32935     1598.926    5262.4976 
   82200    290.39742   -576.37733    150.25452   -309.26417    1523.8233    5124.4613 
   82300    288.23876   -576.31036    150.91013   -309.41025    1037.4001    5023.7759 
   82400    292.50508   -585.23081      155.476   -312.04803    957.87287    4860.4614 
   82500    324.12141   -587.80202     146.6781   -310.69443    1540.8561    4970.7345 
   82600    303.38582   -570.53553    148.97494   -299.47531    1104.4125    5518.8384 
   82700    287.35648   -567.86487     153.7985   -298.43144    386.51137    5558.2583 
   82800    276.56069   -555.36132    153.87223   -290.19848    647.52992    5856.4926 
   82900    276.45603   -549.92713    157.49295   -281.18569   -36.542796    6119.5268 
   83000    326.48122   -563.77788    143.63855   -288.76023    394.72457    5690.9338 
   83100    297.87643   -559.23271    147.61437   -291.75007    529.90402    5706.2769 
   83200    299.31719   -567.96414    146.54227   -300.97383   -28.966227    5421.3628 
   83300    289.68537   -568.77391    151.31132   -300.89049   -56.424267    5365.0651 
   83400    298.97975    -561.5636    146.73357   -294.51778    544.71146     5527.942 
   83500    307.98133    -569.2322    150.95082    -294.3468   -238.31615    5460.7588 
   83600    281.67732   -561.20859    154.03225   -293.82675   -492.48984     5567.837 
   83700    270.22471   -557.68928    155.19382   -293.75451    44.533805     5501.925 
   83800    303.71378   -561.95905    147.17591   -292.56588    404.15931    5422.0192 
   83900    324.07132   -555.78393    137.24252   -288.13208   -874.39405    5657.0693 
   84000    330.18752   -576.34139    142.89424    -300.5766   -1122.1743    5301.2443 
   84100    287.79506   -563.97235    152.69219   -295.46874    219.74278    5685.8791 
   84200    305.77206   -560.55632    141.26872   -296.24207   -573.17184    5653.7908 
   84300    302.73484   -557.12411    144.25211   -291.04867   -961.60612    5808.0089 
   84400    288.10864   -561.32721    150.07835   -295.31125    501.17249    5503.1124 
   84500    318.55568   -578.27465    149.15806   -300.92681   -150.54699    5326.5761 
   84600    325.96551   -569.66971    134.64945   -303.84869    473.54578    5500.9821 
   84700    281.29575   -567.80587    150.91964   -303.69019     -445.274    5633.2446 
   84800    264.45139   -557.77597    156.11242   -295.24583   -663.01264    5930.8995 
   84900    299.74145   -558.34596    142.76808   -294.95912    940.42372    5836.0248 
   85000    288.95917    -561.4124    151.03012    -294.1024    65.646647    5819.4206 
   85100     309.7236   -561.94411    142.97229   -294.33614   -868.60175    5795.4229 
   85200    298.70777   -563.81566    147.29705    -296.3158    814.14389    5704.0623 
   85300    292.69329   -578.33573    152.52205   -308.03116   -260.50437    5271.7074 
   85400    296.27683   -573.01863    149.11271   -304.68135     320.4066    5459.0946 
   85500    322.00061   -577.05648    137.13491   -310.34551   -55.993969    5208.0384 
   85600     295.4398   -562.94259    145.03225   -299.02261    460.84916    5537.6367 
   85700    295.54728   -575.58973    151.31212   -305.34662    1500.7485    5144.0651 
   85800    307.44743   -569.67614    148.68739   -297.26902    1232.2941    5551.6671 
   85900    313.13394   -574.44006     143.3218   -305.11023    1281.0884     5425.683 
   86000    291.13089   -562.93032     147.3733   -298.40323    1186.7008    5736.5544 
   86100    304.21596   -562.36264    146.48113   -293.46216    982.59409    5890.5754 
   86200    293.79308   -555.90041    150.37935   -287.29598    639.25486    6073.6988 
   86300    313.19172   -564.98346    146.01754   -292.93465     1037.635     5762.744 
   86400    322.63477   -577.12986    144.74153   -302.55708    819.32135    5439.2883 
   86500    296.62371   -562.12819    141.20461   -301.55942    582.67185     5598.304 
   86600     302.3139   -574.66265    145.62011    -307.3886     583.3182    5297.5982 
   86700    292.15702   -563.18634    147.42093   -298.19869    1058.8331    5643.9645 
   86800    301.47963   -569.18629    149.41968   -298.44839    385.70908    5535.0661 
   86900    292.41284   -562.48793     152.9926   -291.82566     873.2317    5759.9751 
   87000    285.63796   -550.92128    153.35145   -282.62644   -275.55358    6179.7941 
   87100    322.46832    -554.0337     141.2867   -282.98272    588.66377    6216.8863 
   87200     293.7609   -557.12015    149.96989   -288.93812   -1232.9344    6030.1876 
   87300    309.76552   -565.56697    148.02065   -292.89377   -101.24152    5835.1803 
   87400    296.13303   -570.52027     149.5572   -301.79637    -609.9739    5580.5517 
   87500    280.85399   -570.08046    154.15526   -302.90693   -595.96863     5577.115 
   87600    286.12904   -571.42562    152.69898   -303.58563   -589.58695    5515.7038 
   87700     287.3007   -564.30843    149.82184    -298.8741   -623.19092    5713.2457 
   87800    293.74574   -565.68397     151.0083   -296.46963   -937.42376    5776.4516 
   87900    286.85468   -560.46842    153.27465   -291.76076   -1390.0785    5931.6679 
   88000    278.82133    -561.4891    153.85616   -295.43263   -603.83464    5679.2196 
   88100    294.02732   -562.73716    152.77947   -291.63835   -561.84455    5773.9282 
   88200    298.69893   -556.49522    150.75892   -285.53705   -335.35558    6028.5202 
   88300    309.87149   -564.23434     148.9355   -290.60366   -236.97514    5813.9971 
   88400    312.86737   -568.15921    146.06895    -296.1895   -372.51754    5704.6736 
   88500    300.19752   -554.83181    146.70112   -287.32841   -1197.3894    6200.5719 
   88600    321.79031   -560.29754    141.16015   -289.64596   -34.681292    6099.7257 
   88700      304.907   -546.36341    141.76779   -281.89819   -791.95736    6409.5088 
   88800    293.59831   -547.41561    151.20336   -278.06554    466.74984    6389.0938 
   88900    277.11847   -541.71136    158.63301   -271.56329   -13.286216    6466.4931 
   89000    295.29089   -552.59667    159.58473   -274.18412    419.04306    6175.3804 
   89100    294.89279    -560.6827    159.21149   -282.80359   -399.78268    5965.3947 
   89200    305.02595   -570.71588    152.10366   -295.86692    501.99632    5601.3739 
   89300    294.28286   -565.89255      151.701   -295.76938    -300.0243    5689.8937 
   89400    314.76703   -565.18376    145.09436    -293.4242   -360.11828    5748.8643 
   89500    306.67574    -556.6282    148.43398   -284.78504   -531.31098    6055.1071 
   89600    299.72496   -564.36343    155.34323   -288.40807    207.69066     5877.717 
   89700    291.49889   -558.15171    153.03175   -287.81808    78.384306    5982.0738 
   89800    319.14845   -564.41855    143.87045   -292.11978    1219.6303    5804.2114 
   89900    297.69337    -562.5995    150.73219   -292.07271   -257.61603    5874.1768 
   90000      291.584   -548.87158    148.59689   -282.93856    27.718432    6265.8855 
   90100    298.89319    -555.2352    151.69354   -283.26424   -1483.2248    6141.8782 
   90200    287.77953    -554.8921    154.88313   -284.20379    518.46576    6110.0823 
   90300    298.53983   -563.97015    151.69912   -292.13581     101.5792    5826.2405 
   90400    293.90263   -564.85588    150.67032    -295.9164     1437.237    5733.7537 
   90500    294.64005   -574.74844    154.70047   -301.48205   -691.09645    5514.9047 
   90600    281.47841   -580.59704    162.07938   -305.24812    1259.0283    5384.3194 
   90700    292.72434   -569.58805    152.51945   -299.27359   -494.99321    5688.4282 
   90800    302.46971   -567.30167    148.04413    -297.5409    1296.8813    5777.7059 
   90900    302.12273   -557.33687    147.98921   -287.77065    -738.3459    6225.3093 
   91000    278.57557   -557.37019    156.28398   -288.98479    632.46762    6149.8626 
   91100    289.91747   -558.81702    154.90082    -287.2507    173.71641    6112.5369 
   91200    284.55018   -570.62461    159.67796   -296.44099    13.073765    5726.2031 
   91300    285.22758   -567.72244     153.2153    -299.7289    371.17174    5708.9906 
   91400    287.88294   -566.69683    151.05371   -299.79633    132.72651    5650.9961 
   91500    311.68005   -578.10797    149.00401   -303.68099   -408.71145    5417.8362 
   91600    307.22988   -576.96153    147.22432   -306.10503    402.28047    5336.9604 
   91700    307.94985   -580.54328    148.95603   -307.66535    325.34819     5241.631 
   91800     284.8174   -571.97139     158.3551   -299.00311   -549.01303    5545.1027 
   91900    303.42333   -575.61975    149.65268   -303.86667    82.674788    5377.4812 
   92000     301.9165   -566.47592    149.39031   -295.59159   -40.244285    5760.1128 
   92100    301.49239   -572.60325    151.39457   -299.88533   -1487.6134    5556.1439 
   92200     296.6242   -571.83338    153.07328   -299.39575   -183.53986    5592.5919 
   92300    283.04519   -552.37232    148.77493   -289.69736   -274.88557    6075.5521 
   92400     301.5902   -566.06371    150.53546   -294.16553    75.271444    5759.5004 
   92500    297.96916   -566.72177    150.85079    -295.9654   -581.37975    5723.4793 
   92600    290.56959   -573.83341    153.08779   -303.81769    307.59083     5454.816 
   92700    290.99226   -569.52624    150.10454   -302.32369   -58.199105    5545.8741 
   92800    254.10267   -585.12928    167.90795   -314.96803   -605.78913    5090.8541 
   92900    271.94306   -580.67113    157.45248   -313.78621   -62.799817    5148.0152 
   93000    305.20591   -586.74761    146.56267   -317.36723    382.81336    5036.2324 
   93100    297.03046   -584.26249    149.62899   -315.10566    480.31895    5143.5872 
   93200    275.47022   -576.92177    157.10815   -308.96183   -253.13589    5384.7153 
   93300    292.44675   -573.67152    151.72192   -304.26629   -268.67106      5572.14 
   93400     299.5083   -562.30829    148.20294    -293.5804    307.67216    5917.8877 
   93500    285.21627   -554.85313    154.20899   -285.87045   -245.63664    6198.4704 
   93600    304.20987   -558.51688    146.99553   -289.10445    581.75448    6092.1225 
   93700     309.3555   -563.49026    147.63783   -291.36488   -33.190018    5982.5413 
   93800    280.30409   -555.72512    155.23688   -287.69125    332.45288    6154.0583 
   93900    303.09862   -569.73267     152.4093   -295.35365   -695.07077     5706.676 
   94000    289.23566    -567.9427    156.01382   -295.53775    363.27356    5740.8616 
   94100    289.89045   -568.33374    153.47014   -298.20897   -215.05568    5721.8452 
   94200    282.38806    -564.6903     156.8478   -294.20691   -333.05078    5930.0075 
   94300    317.47812   -568.78757    140.85273   -300.17868    336.92064    5645.2068 
   94400    269.79678   -563.31196    159.45665   -295.28656    513.78816    5762.8863 
   94500    294.23549    -574.5096    156.01458    -300.0919   -269.38909    5487.8936 
   94600    292.74502   -582.95087    156.70405   -308.44348    245.32931    5277.4469 
   94700    287.36989    -580.1971    155.51168   -309.04508    717.72794    5330.8655 
   94800     275.9257   -570.66232    155.30078   -304.32645    388.88832     5538.658 
   94900    304.66294   -576.44376    149.26669   -304.57786   -426.71452     5449.963 
   95000    295.34123   -560.27939     149.9607   -291.47062    423.57642    5922.2045 
   95100    287.97843   -570.93378     156.5892   -298.45937    1615.5961    5590.3174 
   95200    308.91327   -576.23788    146.34025   -305.58803    935.01766    5407.2491 
   95300    307.45686   -578.71247    147.20901   -307.77994    77.185518    5404.8844 
   95400     319.4662   -579.58525    141.89769   -309.13136   -118.74542    5377.4615 
   95500     295.7922   -579.95865     152.3926    -308.5365    1471.3743    5417.6618 
   95600    298.63093   -576.19537    150.12603   -305.89746    -280.6755    5594.1285 
   95700    312.70835   -557.29046    140.27188   -291.18181    948.23657     6276.204 
   95800    302.12764   -547.65405    140.33636    -285.7387   -77.463426    6477.6848 
   95900    300.29668   -552.87315    148.36379   -283.66716    657.68355    6298.9874 
   96000     294.0195   -556.91901    150.80508   -287.79773   -979.63377    6002.9807 
   96100    302.58427    -567.0953     149.9507   -295.38185     192.8693    5691.5153 
   96200    307.80451   -570.42834    144.59996   -301.96496    32.144593    5515.0092 
   96300    309.81842   -579.02232    145.77647   -308.57203     210.3276     5443.963 
   96400     299.3748    -581.2752    146.92327   -313.88071   -976.57482    5358.4592 
   96500    285.95417    -565.9175    145.56215   -305.28472    574.05888    5654.2351 
   96600    300.09481   -574.55383    149.18753   -304.60534   -1133.0619    5558.4079 
   96700    301.43608    -559.1658    145.55191   -292.31319    516.55098    5973.5564 
   96800    301.36136   -568.33949    147.60516    -299.4637    620.26157    5568.4527 
   96900    313.78667   -572.21545     145.5143   -300.43046   -376.74813    5568.8387 
   97000    314.14338    -567.6336    143.35439   -297.86497   -1186.0816    5770.5972 
   97100    295.48078   -563.44779    148.96353   -295.58003    184.49213    5813.9179 
   97200    312.16624   -572.66148    145.39695   -301.64591   -35.395144    5545.0361 
   97300    299.99927   -577.74637    147.80895   -309.21491    463.67208    5300.8215 
   97400    296.09751   -580.91458     149.6887   -312.07347   -236.22632    5206.4441 
   97500    298.63348   -587.21872    151.36221    -315.6836   -516.34397    5098.9388 
   97600    296.87915    -581.3544    149.60972   -312.27774   -166.33752    5266.6219 
   97700    309.75495    -580.7967    144.87154   -311.27687    963.16383    5321.0363 
   97800    309.54369   -582.55156    145.12615   -312.86214    794.73991    5388.0554 
   97900    259.27708   -569.98051    161.33429   -304.31069    19.645837     5751.082 
   98000    286.28843   -566.97073    147.73399    -304.0316   -187.16157    5697.2333 
   98100    320.44066   -573.78207    140.98262   -303.85114    1258.4675    5720.5457 
   98200    292.13477   -566.02418    147.68216   -300.78425   -1245.1159    5898.0052 
   98300    304.53791   -571.28442    142.73787   -305.99765    921.11842    5641.3897 
   98400    314.33954   -577.47942    141.78073   -309.20552   -215.97519    5501.3191 
   98500    315.44922   -572.77508    138.27828   -307.55708   -419.28001    5623.5833 
   98600    310.70768   -571.10592    138.27559   -307.79866   -754.68361     5661.413 
   98700    298.80367   -571.34042     145.2746   -305.82443    1496.8508    5710.8859 
   98800      297.975   -556.05823    142.92169   -293.22861   -1110.5087    6156.1249 
   98900    288.48584   -570.33884    152.38984    -301.8596    376.73517    5665.0671 
   99000    267.95261   -564.96078    157.82219   -299.31196    303.69858    5713.2172 
   99100    303.74462   -571.45534    147.92212   -301.30354   -62.606041    5629.3807 
   99200    296.87012   -570.76384    149.22612   -302.07441   -707.32706    5564.6882 
   99300     293.4235   -562.92742    148.57197   -296.27909    444.17809    5847.7537 
   99400    296.28425   -561.45107    146.38179   -295.84173   -382.30412    5839.0862 
   99500    285.81175   -567.71908    155.63515   -297.07061    356.09752    5781.6439 
   99600    314.47609   -567.13463    139.80831    -300.7782    92.293917    5734.8277 
   99700    289.49706   -557.74437    144.58471   -296.66333    590.63983    5905.3583 
   99800    279.99827   -567.96282    155.85303   -299.43587   -996.23285      5653.67 
   99900    306.10603   -560.28189    146.84022   -290.26174   -614.16501    6018.1379 
  100000     316.4721   -574.38871    148.47498    -298.5624   -1048.9083    5725.9667 
  100100    302.29709   -560.54385    144.75189   -294.14479    -464.6827    6112.4978 
  100200    285.95948   -563.92294    150.52374   -298.32642   -290.32023    5871.9001 
  100300    313.67176   -574.04051    142.96984   -304.84621   -1261.6012    5605.1145 
  100400    295.79187   -557.86019    141.73279   -297.09798    700.85319    5960.4761 
  100500    298.31643   -555.93368    145.50629   -290.38207   -347.03404    6141.6477 
  100600    310.96186   -562.94343    145.96072   -291.84874    300.10153    5957.1296 
  100700    303.78703   -559.96202    148.71436   -289.00091   -585.57663    6048.4772 
  100800    305.20878   -555.05786    143.65082   -288.58817    620.54709    6073.5164 
  100900    278.06241   -560.33826    158.46613   -289.97722   -910.65468    6039.3855 
  101000     281.8383   -563.29574    153.87759   -296.00378     561.3057    5881.0764 
  101100     280.8635   -563.25534    151.92602   -298.30722    1046.5268    5779.6222 
  101200    300.46646   -563.55005    147.43704   -295.20249    1520.9248    5842.8457 
  101300    288.09647   -566.85901    151.91906   -299.00724    211.38834    5667.5239 
  101400    303.20577    -558.5925    146.42429   -290.15537    2106.3133    5992.7975 
  101500    327.34313   -567.88473    139.00432   -297.15447     1050.338     5764.757 
  101600    300.06993   -568.01944    145.13454   -302.13395    1791.9808    5697.0028 
  101700    293.63934   -583.39659    149.25524   -315.97813    1137.3557    5238.8252 
  101800    307.55372   -573.48869    134.34482   -315.38137    1351.2076    5286.0009 
  101900    295.55733   -581.81485    144.32271   -318.55711   -181.01706    5097.5626 
  102000    296.70587   -583.75728    147.18114   -317.17891    1720.9016     5089.115 
  102100    294.05074    -577.9293    147.06991   -312.53062    151.23874    5264.4192 
  102200    310.55435   -571.72339     141.2636   -305.48981    116.97548    5548.9268 
  102300    303.72627   -572.66574    143.39118   -307.05227    95.830957    5554.8484 
  102400    318.70249   -573.67194    136.42925   -308.99382    313.54272    5609.5165 
  102418    317.35885   -577.41416    137.53859    -312.1674    955.77826    5526.1223 
Loop time of 45.2809 on 1 procs for 100000 steps with 136 atoms

Performance: 190.809 ns/day, 0.126 hours/ns, 2208.438 timesteps/s
100.0% CPU use with 1 MPI tasks x no OpenMP threads

MPI task timing breakdown:
Section |  min time  |  avg time  |  max time  |%varavg| %total
---------------------------------------------------------------
Pair    | 19.295     | 19.295     | 19.295     |   0.0 | 42.61
Bond    | 6.1184     | 6.1184     | 6.1184     |   0.0 | 13.51
Kspace  | 10.828     | 10.828     | 10.828     |   0.0 | 23.91
Neigh   | 1.503      | 1.503      | 1.503      |   0.0 |  3.32
Comm    | 0.66155    | 0.66155    | 0.66155    |   0.0 |  1.46
Output  | 0.041802   | 0.041802   | 0.041802   |   0.0 |  0.09
Modify  | 6.6838     | 6.6838     | 6.6838     |   0.0 | 14.76
Other   |            | 0.1488     |            |       |  0.33

Nlocal:        136.000 ave         136 max         136 min
Histogram: 1 0 0 0 0 0 0 0 0 0
Nghost:        2316.00 ave        2316 max        2316 min
Histogram: 1 0 0 0 0 0 0 0 0 0
Neighs:        14289.0 ave       14289 max       14289 min
Histogram: 1 0 0 0 0 0 0 0 0 0

Total # of neighbors = 14289
Ave neighs/atom = 105.06618
Ave special neighs/atom = 8.2352941
Neighbor list builds = 2690
Dangerous builds = 0

write_data   system_after_npt.data
System init for write_data ...
PPPM initialization ...
  using 12-bit tables for long-range coulomb (../kspace.cpp:340)
  G vector (1/distance) = 0.21360742
  grid = 6 6 6
  stencil order = 5
  estimated absolute RMS force accuracy = 0.015223788
  estimated relative force accuracy = 4.5845986e-05
  using double precision KISS FFT
  3d grid and FFT values/proc = 1331 216
Total wall time: 0:00:46
